*SPEF "ieee 1481-1999"
*DESIGN "delay_line"
*DATE "01:24:02 Tuesday March 10, 2026"
*VENDOR "The OpenROAD Project"
*PROGRAM "OpenROAD"
*VERSION "dfc4f595dfb2e1c346492ff1f0274abb28725acf"
*DESIGN_FLOW "NAME_SCOPE LOCAL" "PIN_CAP NONE"
*DIVIDER /
*DELIMITER :
*BUS_DELIMITER []
*T_UNIT 1 NS
*C_UNIT 1 PF
*R_UNIT 1 OHM
*L_UNIT 1 HENRY

*NAME_MAP
*3 clk
*4 clk_delayed
*5 reset
*6 sel[0]
*7 sel[1]
*8 sel[2]
*9 sel[3]
*10 trim[0]
*11 trim[10]
*12 trim[11]
*13 trim[12]
*14 trim[13]
*15 trim[14]
*16 trim[15]
*17 trim[16]
*18 trim[17]
*19 trim[18]
*20 trim[19]
*21 trim[1]
*22 trim[20]
*23 trim[21]
*24 trim[22]
*25 trim[23]
*26 trim[2]
*27 trim[3]
*28 trim[4]
*29 trim[5]
*30 trim[6]
*31 trim[7]
*32 trim[8]
*33 trim[9]
*34 _00_
*35 _01_
*36 _02_
*37 _03_
*38 _04_
*39 _05_
*40 clknet_0_dstage\[0\]\.id\.delaybuf0\.A
*41 clknet_0_dstage\[0\]\.id\.delaybuf0\.X
*42 clknet_0_dstage\[0\]\.id\.delayen0\.Z
*43 clknet_0_dstage\[0\]\.id\.delayen0\.Z_regs
*44 clknet_0_dstage\[10\]\.id\.delaybuf0\.A
*45 clknet_0_dstage\[10\]\.id\.delaybuf0\.X
*46 clknet_0_dstage\[10\]\.id\.delayen0\.Z
*47 clknet_0_dstage\[10\]\.id\.delayen0\.Z_regs
*48 clknet_0_dstage\[1\]\.id\.delayen0\.Z
*49 clknet_0_dstage\[2\]\.id\.delaybuf0\.X
*50 clknet_0_dstage\[2\]\.id\.delayen0\.Z
*51 clknet_0_dstage\[2\]\.id\.delayen0\.Z_regs
*52 clknet_0_dstage\[3\]\.id\.delayen0\.Z
*53 clknet_0_dstage\[4\]\.id\.delaybuf0\.X
*54 clknet_0_dstage\[4\]\.id\.delayen0\.Z
*55 clknet_0_dstage\[4\]\.id\.delayen0\.Z_regs
*56 clknet_0_dstage\[5\]\.id\.delayen0\.Z
*57 clknet_0_dstage\[6\]\.id\.delayen0\.Z
*58 clknet_0_dstage\[6\]\.id\.delayen0\.Z_regs
*59 clknet_0_dstage\[7\]\.id\.delaybuf0\.X
*60 clknet_0_dstage\[7\]\.id\.delayen0\.Z
*61 clknet_0_dstage\[8\]\.id\.delaybuf0\.X
*62 clknet_0_dstage\[8\]\.id\.delayen0\.Z
*63 clknet_0_dstage\[8\]\.id\.delayen0\.Z_regs
*64 clknet_1_0__leaf_dstage\[0\]\.id\.delaybuf0\.A
*65 clknet_1_0__leaf_dstage\[0\]\.id\.delaybuf0\.X
*66 clknet_1_0__leaf_dstage\[0\]\.id\.delayen0\.Z_regs
*67 clknet_1_0__leaf_dstage\[10\]\.id\.delaybuf0\.A
*68 clknet_1_0__leaf_dstage\[10\]\.id\.delaybuf0\.X
*69 clknet_1_0__leaf_dstage\[10\]\.id\.delayen0\.Z_regs
*70 clknet_1_0__leaf_dstage\[11\]\.id\.delaybuf0\.X
*71 clknet_1_0__leaf_dstage\[1\]\.id\.delaybuf0\.X
*72 clknet_1_0__leaf_dstage\[1\]\.id\.delayen0\.Z
*73 clknet_1_0__leaf_dstage\[2\]\.id\.delaybuf0\.X
*74 clknet_1_0__leaf_dstage\[2\]\.id\.delayen0\.Z_regs
*75 clknet_1_0__leaf_dstage\[3\]\.id\.delaybuf0\.X
*76 clknet_1_0__leaf_dstage\[3\]\.id\.delayen0\.Z
*77 clknet_1_0__leaf_dstage\[4\]\.id\.delaybuf0\.X
*78 clknet_1_0__leaf_dstage\[4\]\.id\.delayen0\.Z_regs
*79 clknet_1_0__leaf_dstage\[5\]\.id\.delaybuf0\.X
*80 clknet_1_0__leaf_dstage\[6\]\.id\.delaybuf0\.X
*81 clknet_1_0__leaf_dstage\[6\]\.id\.delayen0\.Z_regs
*82 clknet_1_0__leaf_dstage\[7\]\.id\.delaybuf0\.X
*83 clknet_1_0__leaf_dstage\[7\]\.id\.delayen0\.Z
*84 clknet_1_0__leaf_dstage\[8\]\.id\.delaybuf0\.X
*85 clknet_1_0__leaf_dstage\[8\]\.id\.delayen0\.Z_regs
*86 clknet_1_0__leaf_dstage\[9\]\.id\.delaybuf0\.X
*87 clknet_1_1__leaf_dstage\[0\]\.id\.delaybuf0\.A
*88 clknet_1_1__leaf_dstage\[0\]\.id\.delaybuf0\.X
*89 clknet_1_1__leaf_dstage\[10\]\.id\.delaybuf0\.A
*90 clknet_1_1__leaf_dstage\[10\]\.id\.delaybuf0\.X
*91 clknet_1_1__leaf_dstage\[11\]\.id\.delaybuf0\.X
*92 clknet_1_1__leaf_dstage\[1\]\.id\.delaybuf0\.X
*93 clknet_1_1__leaf_dstage\[2\]\.id\.delaybuf0\.X
*94 clknet_1_1__leaf_dstage\[3\]\.id\.delaybuf0\.X
*95 clknet_1_1__leaf_dstage\[3\]\.id\.delayen0\.Z
*96 clknet_1_1__leaf_dstage\[4\]\.id\.delaybuf0\.X
*97 clknet_1_1__leaf_dstage\[5\]\.id\.delaybuf0\.X
*98 clknet_1_1__leaf_dstage\[5\]\.id\.delayen0\.Z
*99 clknet_1_1__leaf_dstage\[6\]\.id\.delaybuf0\.X
*100 clknet_1_1__leaf_dstage\[7\]\.id\.delaybuf0\.X
*101 clknet_1_1__leaf_dstage\[7\]\.id\.delayen0\.Z
*102 clknet_1_1__leaf_dstage\[8\]\.id\.delaybuf0\.X
*103 clknet_1_1__leaf_dstage\[9\]\.id\.delaybuf0\.X
*104 dstage\[0\]\.id\.d1
*105 dstage\[0\]\.id\.delaybuf0\.A
*106 dstage\[0\]\.id\.delayen0\.Z
*107 dstage\[0\]\.id\.delayen0\.Z_regs
*108 dstage\[0\]\.id\.delayen0\.te_b
*109 dstage\[0\]\.id\.delayen1\.te_b
*110 dstage\[10\]\.id\.d0
*111 dstage\[10\]\.id\.d1
*112 dstage\[10\]\.id\.delaybuf0\.A
*113 dstage\[10\]\.id\.delayen0\.Z
*114 dstage\[10\]\.id\.delayen0\.Z_regs
*115 dstage\[10\]\.id\.delayen0\.te_b
*116 dstage\[10\]\.id\.delayen1\.te_b
*117 dstage\[11\]\.id\.d0
*118 dstage\[11\]\.id\.d1
*119 dstage\[11\]\.id\.delayen0\.Z
*120 dstage\[11\]\.id\.delayen0\.te_b
*121 dstage\[11\]\.id\.delayen1\.te_b
*122 dstage\[1\]\.id\.d1
*123 dstage\[1\]\.id\.delayen0\.Z
*124 dstage\[1\]\.id\.delayen0\.te_b
*125 dstage\[1\]\.id\.delayen1\.te_b
*126 dstage\[2\]\.id\.d1
*127 dstage\[2\]\.id\.delayen0\.Z
*128 dstage\[2\]\.id\.delayen0\.Z_regs
*129 dstage\[2\]\.id\.delayen0\.te_b
*130 dstage\[2\]\.id\.delayen1\.te_b
*131 dstage\[3\]\.id\.d1
*132 dstage\[3\]\.id\.delayen0\.Z
*133 dstage\[3\]\.id\.delayen0\.te_b
*134 dstage\[3\]\.id\.delayen1\.te_b
*135 dstage\[4\]\.id\.d0
*136 dstage\[4\]\.id\.d1
*137 dstage\[4\]\.id\.delayen0\.Z
*138 dstage\[4\]\.id\.delayen0\.Z_regs
*139 dstage\[4\]\.id\.delayen0\.te_b
*140 dstage\[4\]\.id\.delayen1\.te_b
*141 dstage\[5\]\.id\.d0
*142 dstage\[5\]\.id\.d1
*143 dstage\[5\]\.id\.delayen0\.Z
*144 dstage\[5\]\.id\.delayen0\.te_b
*145 dstage\[5\]\.id\.delayen1\.te_b
*146 dstage\[6\]\.id\.d0
*147 dstage\[6\]\.id\.d1
*148 dstage\[6\]\.id\.delayen0\.Z
*149 dstage\[6\]\.id\.delayen0\.Z_regs
*150 dstage\[6\]\.id\.delayen0\.te_b
*151 dstage\[6\]\.id\.delayen1\.te_b
*152 dstage\[7\]\.id\.d0
*153 dstage\[7\]\.id\.d1
*154 dstage\[7\]\.id\.delayen0\.Z
*155 dstage\[7\]\.id\.delayen0\.te_b
*156 dstage\[7\]\.id\.delayen1\.te_b
*157 dstage\[8\]\.id\.d0
*158 dstage\[8\]\.id\.d1
*159 dstage\[8\]\.id\.delayen0\.Z
*160 dstage\[8\]\.id\.delayen0\.Z_regs
*161 dstage\[8\]\.id\.delayen0\.te_b
*162 dstage\[8\]\.id\.delayen1\.te_b
*163 dstage\[9\]\.id\.d1
*164 dstage\[9\]\.id\.delayen0\.te_b
*165 dstage\[9\]\.id\.delayen1\.te_b
*166 net1
*167 net10
*168 net11
*169 net12
*170 net13
*171 net14
*172 net15
*173 net16
*174 net17
*175 net18
*176 net19
*177 net2
*178 net20
*179 net21
*180 net22
*181 net23
*182 net24
*183 net25
*184 net26
*185 net27
*186 net28
*187 net29
*188 net3
*189 net30
*190 net31
*191 net32
*192 net33
*193 net34
*194 net35
*195 net36
*196 net37
*197 net38
*198 net39
*199 net4
*200 net40
*201 net41
*202 net42
*203 net43
*204 net44
*205 net45
*206 net46
*207 net47
*208 net48
*209 net49
*210 net5
*211 net50
*212 net51
*213 net52
*214 net53
*215 net54
*216 net55
*217 net56
*218 net57
*219 net58
*220 net59
*221 net6
*222 net60
*223 net61
*224 net62
*225 net63
*226 net64
*227 net65
*228 net66
*229 net67
*230 net68
*231 net69
*232 net7
*233 net8
*234 net9
*235 phase_taps\[0\]\.genblk1\.ibuf_tap_even\.X
*236 phase_taps\[10\]\.genblk1\.ibuf_tap_even\.X
*237 phase_taps\[12\]\.genblk1\.ibuf_tap_even\.X
*238 phase_taps\[2\]\.genblk1\.ibuf_tap_even\.X
*239 phase_taps\[4\]\.genblk1\.ibuf_tap_even\.X
*240 phase_taps\[6\]\.genblk1\.ibuf_tap_even\.X
*241 phase_taps\[8\]\.genblk1\.ibuf_tap_even\.X
*242 u_delay_mux\.clk_pre
*243 u_delay_mux\.gen_clockp_bufs\[0\]\.u_one_hot_tribuf\.TE_B
*244 u_delay_mux\.gen_clockp_bufs\[10\]\.u_one_hot_tribuf\.TE_B
*245 u_delay_mux\.gen_clockp_bufs\[11\]\.u_one_hot_tribuf\.TE_B
*246 u_delay_mux\.gen_clockp_bufs\[12\]\.u_one_hot_tribuf\.TE_B
*247 u_delay_mux\.gen_clockp_bufs\[1\]\.u_one_hot_tribuf\.TE_B
*248 u_delay_mux\.gen_clockp_bufs\[2\]\.u_one_hot_tribuf\.TE_B
*249 u_delay_mux\.gen_clockp_bufs\[3\]\.u_one_hot_tribuf\.TE_B
*250 u_delay_mux\.gen_clockp_bufs\[4\]\.u_one_hot_tribuf\.TE_B
*251 u_delay_mux\.gen_clockp_bufs\[5\]\.u_one_hot_tribuf\.TE_B
*252 u_delay_mux\.gen_clockp_bufs\[6\]\.u_one_hot_tribuf\.TE_B
*253 u_delay_mux\.gen_clockp_bufs\[7\]\.u_one_hot_tribuf\.TE_B
*254 u_delay_mux\.gen_clockp_bufs\[8\]\.u_one_hot_tribuf\.TE_B
*255 u_delay_mux\.gen_clockp_bufs\[9\]\.u_one_hot_tribuf\.TE_B
*256 FILLER_0_119
*257 FILLER_0_67
*258 FILLER_0_93
*259 FILLER_10_141
*260 FILLER_10_152
*261 FILLER_11_142
*262 FILLER_12_0
*263 FILLER_12_124
*264 FILLER_12_23
*265 FILLER_13_0
*266 FILLER_13_10
*267 FILLER_13_129
*268 FILLER_13_131
*269 FILLER_13_24
*270 FILLER_13_33
*271 FILLER_15_114
*272 FILLER_15_141
*273 FILLER_15_148
*274 FILLER_15_152
*275 FILLER_15_71
*276 FILLER_16_140
*277 FILLER_16_147
*278 FILLER_16_67
*279 FILLER_16_8
*280 FILLER_17_140
*281 FILLER_17_148
*282 FILLER_17_152
*283 FILLER_17_54
*284 FILLER_18_0
*285 FILLER_18_153
*286 FILLER_18_73
*287 FILLER_19_120
*288 FILLER_19_146
*289 FILLER_1_0
*290 FILLER_1_99
*291 FILLER_20_0
*292 FILLER_20_127
*293 FILLER_20_26
*294 FILLER_21_118
*295 FILLER_21_120
*296 FILLER_21_58
*297 FILLER_22_140
*298 FILLER_22_147
*299 FILLER_22_149
*300 FILLER_23_0
*301 FILLER_23_139
*302 FILLER_23_146
*303 FILLER_23_153
*304 FILLER_23_30
*305 FILLER_24_68
*306 FILLER_25_128
*307 FILLER_25_130
*308 FILLER_25_153
*309 FILLER_25_17
*310 FILLER_25_49
*311 FILLER_25_8
*312 FILLER_26_0
*313 FILLER_26_128
*314 FILLER_26_15
*315 FILLER_26_152
*316 FILLER_26_23
*317 FILLER_26_30
*318 FILLER_26_37
*319 FILLER_26_4
*320 FILLER_2_125
*321 FILLER_2_63
*322 FILLER_2_93
*323 FILLER_3_102
*324 FILLER_5_47
*325 FILLER_5_81
*326 FILLER_6_152
*327 FILLER_6_25
*328 FILLER_6_56
*329 FILLER_7_133
*330 FILLER_8_101
*331 FILLER_8_152
*332 FILLER_8_70
*333 _06_
*334 _07_
*335 _08_
*336 _09_
*337 _10_
*338 _11_
*339 _12_
*340 _13_
*341 _14_
*342 _15_
*343 _16_
*344 _17_
*345 _18_
*346 _19_
*347 _20_
*348 _21_
*349 _22_
*350 _23_
*351 _24_
*352 clkbuf_0_dstage\[0\]\.id\.delaybuf0\.A
*353 clkbuf_0_dstage\[0\]\.id\.delaybuf0\.X
*354 clkbuf_0_dstage\[0\]\.id\.delayen0\.Z
*355 clkbuf_0_dstage\[0\]\.id\.delayen0\.Z_regs
*356 clkbuf_0_dstage\[10\]\.id\.delaybuf0\.A
*357 clkbuf_0_dstage\[10\]\.id\.delaybuf0\.X
*358 clkbuf_0_dstage\[10\]\.id\.delayen0\.Z
*359 clkbuf_0_dstage\[10\]\.id\.delayen0\.Z_regs
*360 clkbuf_0_dstage\[1\]\.id\.delayen0\.Z
*361 clkbuf_0_dstage\[2\]\.id\.delaybuf0\.X
*362 clkbuf_0_dstage\[2\]\.id\.delayen0\.Z
*363 clkbuf_0_dstage\[2\]\.id\.delayen0\.Z_regs
*364 clkbuf_0_dstage\[3\]\.id\.delayen0\.Z
*365 clkbuf_0_dstage\[4\]\.id\.delaybuf0\.X
*366 clkbuf_0_dstage\[4\]\.id\.delayen0\.Z
*367 clkbuf_0_dstage\[4\]\.id\.delayen0\.Z_regs
*368 clkbuf_0_dstage\[5\]\.id\.delayen0\.Z
*369 clkbuf_0_dstage\[6\]\.id\.delayen0\.Z
*370 clkbuf_0_dstage\[6\]\.id\.delayen0\.Z_regs
*371 clkbuf_0_dstage\[7\]\.id\.delaybuf0\.X
*372 clkbuf_0_dstage\[7\]\.id\.delayen0\.Z
*373 clkbuf_0_dstage\[8\]\.id\.delaybuf0\.X
*374 clkbuf_0_dstage\[8\]\.id\.delayen0\.Z
*375 clkbuf_0_dstage\[8\]\.id\.delayen0\.Z_regs
*376 clkbuf_1_0__f_dstage\[0\]\.id\.delaybuf0\.A
*377 clkbuf_1_0__f_dstage\[0\]\.id\.delaybuf0\.X
*378 clkbuf_1_0__f_dstage\[0\]\.id\.delayen0\.Z_regs
*379 clkbuf_1_0__f_dstage\[10\]\.id\.delaybuf0\.A
*380 clkbuf_1_0__f_dstage\[10\]\.id\.delaybuf0\.X
*381 clkbuf_1_0__f_dstage\[10\]\.id\.delayen0\.Z_regs
*382 clkbuf_1_0__f_dstage\[11\]\.id\.delaybuf0\.X
*383 clkbuf_1_0__f_dstage\[1\]\.id\.delaybuf0\.X
*384 clkbuf_1_0__f_dstage\[1\]\.id\.delayen0\.Z
*385 clkbuf_1_0__f_dstage\[2\]\.id\.delaybuf0\.X
*386 clkbuf_1_0__f_dstage\[2\]\.id\.delayen0\.Z_regs
*387 clkbuf_1_0__f_dstage\[3\]\.id\.delaybuf0\.X
*388 clkbuf_1_0__f_dstage\[3\]\.id\.delayen0\.Z
*389 clkbuf_1_0__f_dstage\[4\]\.id\.delaybuf0\.X
*390 clkbuf_1_0__f_dstage\[4\]\.id\.delayen0\.Z_regs
*391 clkbuf_1_0__f_dstage\[5\]\.id\.delaybuf0\.X
*392 clkbuf_1_0__f_dstage\[6\]\.id\.delaybuf0\.X
*393 clkbuf_1_0__f_dstage\[6\]\.id\.delayen0\.Z_regs
*394 clkbuf_1_0__f_dstage\[7\]\.id\.delaybuf0\.X
*395 clkbuf_1_0__f_dstage\[7\]\.id\.delayen0\.Z
*396 clkbuf_1_0__f_dstage\[8\]\.id\.delaybuf0\.X
*397 clkbuf_1_0__f_dstage\[8\]\.id\.delayen0\.Z_regs
*398 clkbuf_1_0__f_dstage\[9\]\.id\.delaybuf0\.X
*399 clkbuf_1_1__f_dstage\[0\]\.id\.delaybuf0\.A
*400 clkbuf_1_1__f_dstage\[0\]\.id\.delaybuf0\.X
*401 clkbuf_1_1__f_dstage\[10\]\.id\.delaybuf0\.A
*402 clkbuf_1_1__f_dstage\[10\]\.id\.delaybuf0\.X
*403 clkbuf_1_1__f_dstage\[11\]\.id\.delaybuf0\.X
*404 clkbuf_1_1__f_dstage\[1\]\.id\.delaybuf0\.X
*405 clkbuf_1_1__f_dstage\[2\]\.id\.delaybuf0\.X
*406 clkbuf_1_1__f_dstage\[3\]\.id\.delaybuf0\.X
*407 clkbuf_1_1__f_dstage\[3\]\.id\.delayen0\.Z
*408 clkbuf_1_1__f_dstage\[4\]\.id\.delaybuf0\.X
*409 clkbuf_1_1__f_dstage\[5\]\.id\.delaybuf0\.X
*410 clkbuf_1_1__f_dstage\[5\]\.id\.delayen0\.Z
*411 clkbuf_1_1__f_dstage\[6\]\.id\.delaybuf0\.X
*412 clkbuf_1_1__f_dstage\[7\]\.id\.delaybuf0\.X
*413 clkbuf_1_1__f_dstage\[7\]\.id\.delayen0\.Z
*414 clkbuf_1_1__f_dstage\[8\]\.id\.delaybuf0\.X
*415 clkbuf_1_1__f_dstage\[9\]\.id\.delaybuf0\.X
*416 clkbuf_regs_0_clk
*417 clkbuf_regs_1_clk
*418 clkbuf_regs_2_clk
*419 clkbuf_regs_3_clk
*420 clkbuf_regs_4_clk
*421 clkbuf_regs_5_clk
*422 clkload0
*423 clkload1
*424 clkload10
*425 clkload11
*426 clkload12
*427 clkload13
*428 clkload14
*429 clkload15
*430 clkload16
*431 clkload17
*432 clkload2
*433 clkload3
*434 clkload4
*435 clkload5
*436 clkload6
*437 clkload7
*438 clkload8
*439 clkload9
*440 dstage\[0\]\.id\.delayen0\.u_einv
*441 dstage\[0\]\.id\.delayen0\.u_inv_te
*442 dstage\[0\]\.id\.delayen1\.u_einv
*443 dstage\[0\]\.id\.delayen1\.u_inv_te
*444 dstage\[0\]\.id\.delayenb0\.u_einv
*445 dstage\[0\]\.id\.delayenb1\.u_einv
*446 dstage\[0\]\.id\.delayint0\.u_inv_30
*447 dstage\[10\]\.id\.delaybuf1\.u_buf
*448 dstage\[10\]\.id\.delayen0\.u_einv
*449 dstage\[10\]\.id\.delayen0\.u_inv_te
*450 dstage\[10\]\.id\.delayen1\.u_einv
*451 dstage\[10\]\.id\.delayen1\.u_inv_te
*452 dstage\[10\]\.id\.delayenb0\.u_einv
*453 dstage\[10\]\.id\.delayenb1\.u_einv
*454 dstage\[10\]\.id\.delayint0\.u_inv_45
*455 dstage\[11\]\.id\.delaybuf1\.u_buf
*456 dstage\[11\]\.id\.delayen0\.u_einv
*457 dstage\[11\]\.id\.delayen0\.u_inv_te
*458 dstage\[11\]\.id\.delayen1\.u_einv
*459 dstage\[11\]\.id\.delayen1\.u_inv_te
*460 dstage\[11\]\.id\.delayenb0\.u_einv
*461 dstage\[11\]\.id\.delayenb1\.u_einv
*462 dstage\[11\]\.id\.delayint0\.u_inv_47
*463 dstage\[1\]\.id\.delayen0\.u_einv
*464 dstage\[1\]\.id\.delayen0\.u_inv_te
*465 dstage\[1\]\.id\.delayen1\.u_einv
*466 dstage\[1\]\.id\.delayen1\.u_inv_te
*467 dstage\[1\]\.id\.delayenb0\.u_einv
*468 dstage\[1\]\.id\.delayenb1\.u_einv
*469 dstage\[1\]\.id\.delayint0\.u_inv_32
*470 dstage\[2\]\.id\.delayen0\.u_einv
*471 dstage\[2\]\.id\.delayen0\.u_inv_te
*472 dstage\[2\]\.id\.delayen1\.u_einv
*473 dstage\[2\]\.id\.delayen1\.u_inv_te
*474 dstage\[2\]\.id\.delayenb0\.u_einv
*475 dstage\[2\]\.id\.delayenb1\.u_einv
*476 dstage\[2\]\.id\.delayint0\.u_inv_33
*477 dstage\[3\]\.id\.delayen0\.u_einv
*478 dstage\[3\]\.id\.delayen0\.u_inv_te
*479 dstage\[3\]\.id\.delayen1\.u_einv
*480 dstage\[3\]\.id\.delayen1\.u_inv_te
*481 dstage\[3\]\.id\.delayenb0\.u_einv
*482 dstage\[3\]\.id\.delayenb1\.u_einv
*483 dstage\[3\]\.id\.delayint0\.u_inv_35
*484 dstage\[4\]\.id\.delaybuf1\.u_buf
*485 dstage\[4\]\.id\.delayen0\.u_einv
*486 dstage\[4\]\.id\.delayen0\.u_inv_te
*487 dstage\[4\]\.id\.delayen1\.u_einv
*488 dstage\[4\]\.id\.delayen1\.u_inv_te
*489 dstage\[4\]\.id\.delayenb0\.u_einv
*490 dstage\[4\]\.id\.delayenb1\.u_einv
*491 dstage\[4\]\.id\.delayint0\.u_inv_36
*492 dstage\[5\]\.id\.delaybuf1\.u_buf
*493 dstage\[5\]\.id\.delayen0\.u_einv
*494 dstage\[5\]\.id\.delayen0\.u_inv_te
*495 dstage\[5\]\.id\.delayen1\.u_einv
*496 dstage\[5\]\.id\.delayen1\.u_inv_te
*497 dstage\[5\]\.id\.delayenb0\.u_einv
*498 dstage\[5\]\.id\.delayenb1\.u_einv
*499 dstage\[5\]\.id\.delayint0\.u_inv_38
*500 dstage\[6\]\.id\.delaybuf1\.u_buf
*501 dstage\[6\]\.id\.delayen0\.u_einv
*502 dstage\[6\]\.id\.delayen0\.u_inv_te
*503 dstage\[6\]\.id\.delayen1\.u_einv
*504 dstage\[6\]\.id\.delayen1\.u_inv_te
*505 dstage\[6\]\.id\.delayenb0\.u_einv
*506 dstage\[6\]\.id\.delayenb1\.u_einv
*507 dstage\[6\]\.id\.delayint0\.u_inv_39
*508 dstage\[7\]\.id\.delaybuf1\.u_buf
*509 dstage\[7\]\.id\.delayen0\.u_einv
*510 dstage\[7\]\.id\.delayen0\.u_inv_te
*511 dstage\[7\]\.id\.delayen1\.u_einv
*512 dstage\[7\]\.id\.delayen1\.u_inv_te
*513 dstage\[7\]\.id\.delayenb0\.u_einv
*514 dstage\[7\]\.id\.delayenb1\.u_einv
*515 dstage\[7\]\.id\.delayint0\.u_inv_41
*516 dstage\[8\]\.id\.delaybuf1\.u_buf
*517 dstage\[8\]\.id\.delayen0\.u_einv
*518 dstage\[8\]\.id\.delayen0\.u_inv_te
*519 dstage\[8\]\.id\.delayen1\.u_einv
*520 dstage\[8\]\.id\.delayen1\.u_inv_te
*521 dstage\[8\]\.id\.delayenb0\.u_einv
*522 dstage\[8\]\.id\.delayenb1\.u_einv
*523 dstage\[8\]\.id\.delayint0\.u_inv_42
*524 dstage\[9\]\.id\.delayen0\.u_einv
*525 dstage\[9\]\.id\.delayen0\.u_inv_te
*526 dstage\[9\]\.id\.delayen1\.u_einv
*527 dstage\[9\]\.id\.delayen1\.u_inv_te
*528 dstage\[9\]\.id\.delayenb0\.u_einv
*529 dstage\[9\]\.id\.delayenb1\.u_einv
*530 dstage\[9\]\.id\.delayint0\.u_inv_44
*531 input1
*532 input10
*533 input11
*534 input12
*535 input13
*536 input14
*537 input15
*538 input16
*539 input17
*540 input18
*541 input19
*542 input2
*543 input20
*544 input21
*545 input22
*546 input23
*547 input24
*548 input25
*549 input26
*550 input27
*551 input28
*552 input3
*553 input4
*554 input5
*555 input6
*556 input7
*557 input8
*558 input9
*559 output29
*560 phase_taps\[0\]\.genblk1\.ibuf_tap_even\.u_buf
*561 phase_taps\[10\]\.genblk1\.ibuf_tap_even\.u_buf
*562 phase_taps\[11\]\.genblk1\.iinv_tap_odd\.u_inv_46
*563 phase_taps\[12\]\.genblk1\.ibuf_tap_even\.u_buf
*564 phase_taps\[1\]\.genblk1\.iinv_tap_odd\.u_inv_31
*565 phase_taps\[2\]\.genblk1\.ibuf_tap_even\.u_buf
*566 phase_taps\[3\]\.genblk1\.iinv_tap_odd\.u_inv_34
*567 phase_taps\[4\]\.genblk1\.ibuf_tap_even\.u_buf
*568 phase_taps\[5\]\.genblk1\.iinv_tap_odd\.u_inv_37
*569 phase_taps\[6\]\.genblk1\.ibuf_tap_even\.u_buf
*570 phase_taps\[7\]\.genblk1\.iinv_tap_odd\.u_inv_40
*571 phase_taps\[8\]\.genblk1\.ibuf_tap_even\.u_buf
*572 phase_taps\[9\]\.genblk1\.iinv_tap_odd\.u_inv_43
*573 rebuffer48
*574 rebuffer49
*575 rebuffer50
*576 rebuffer51
*577 rebuffer52
*578 rebuffer53
*579 rebuffer54
*580 rebuffer55
*581 rebuffer56
*582 rebuffer57
*583 rebuffer58
*584 rebuffer59
*585 rebuffer60
*586 rebuffer61
*587 rebuffer62
*588 rebuffer63
*589 rebuffer64
*590 rebuffer65
*591 rebuffer66
*592 rebuffer67
*593 rebuffer68
*594 rebuffer69
*595 u_delay_mux\.gen_clockp_bufs\[0\]\.u_one_hot_tribuf\.u_ebuf
*596 u_delay_mux\.gen_clockp_bufs\[10\]\.u_one_hot_tribuf\.u_ebuf
*597 u_delay_mux\.gen_clockp_bufs\[11\]\.u_one_hot_tribuf\.u_ebuf
*598 u_delay_mux\.gen_clockp_bufs\[12\]\.u_one_hot_tribuf\.u_ebuf
*599 u_delay_mux\.gen_clockp_bufs\[1\]\.u_one_hot_tribuf\.u_ebuf
*600 u_delay_mux\.gen_clockp_bufs\[2\]\.u_one_hot_tribuf\.u_ebuf
*601 u_delay_mux\.gen_clockp_bufs\[3\]\.u_one_hot_tribuf\.u_ebuf
*602 u_delay_mux\.gen_clockp_bufs\[4\]\.u_one_hot_tribuf\.u_ebuf
*603 u_delay_mux\.gen_clockp_bufs\[5\]\.u_one_hot_tribuf\.u_ebuf
*604 u_delay_mux\.gen_clockp_bufs\[6\]\.u_one_hot_tribuf\.u_ebuf
*605 u_delay_mux\.gen_clockp_bufs\[7\]\.u_one_hot_tribuf\.u_ebuf
*606 u_delay_mux\.gen_clockp_bufs\[8\]\.u_one_hot_tribuf\.u_ebuf
*607 u_delay_mux\.gen_clockp_bufs\[9\]\.u_one_hot_tribuf\.u_ebuf
*608 u_delay_mux\.u_clkbuf\.u_buf
*609 u_inbuf\.u_buf

*PORTS
clk I
clk_delayed O
reset I
sel[0] I
sel[1] I
sel[2] I
sel[3] I
trim[0] I
trim[10] I
trim[11] I
trim[12] I
trim[13] I
trim[14] I
trim[15] I
trim[16] I
trim[17] I
trim[18] I
trim[19] I
trim[1] I
trim[20] I
trim[21] I
trim[22] I
trim[23] I
trim[2] I
trim[3] I
trim[4] I
trim[5] I
trim[6] I
trim[7] I
trim[8] I
trim[9] I

*D_NET *3 0.00240163
*CONN
*P clk I
*I *609:A I *D sg13g2_buf_16
*CAP
1 clk 0.0010799
2 *609:A 0.0010799
3 *609:A *353:A 0
4 *609:A *399:A 0
5 *609:A *404:A 0
6 *609:A *10:11 0
7 *609:A *13:13 0
8 *609:A *40:31 0
9 *609:A *104:16 0.00024184
10 *609:A *105:17 0
*RES
1 clk *609:A 31.8038 
*END

*D_NET *4 0.00354919
*CONN
*P clk_delayed O
*I *559:X O *D sg13g2_buf_1
*CAP
1 clk_delayed 0.000908421
2 *559:X 0.000908421
3 clk_delayed *8:25 0.0005643
4 clk_delayed *9:15 0
5 clk_delayed *25:11 0.00043601
6 clk_delayed *199:29 0.00044187
7 clk_delayed *221:8 0.00017737
8 clk_delayed *232:22 0.000112799
*RES
1 *559:X clk_delayed 49.8983 
*END

*D_NET *6 0.00700637
*CONN
*P sel[0] I
*I *531:A I *D sg13g2_buf_1
*CAP
1 sel[0] 0.00206601
2 *531:A 0
3 *6:17 0.00078858
4 *6:11 0.00285459
5 *6:11 *477:TE_B 0
6 *6:11 *7:13 0
7 *6:11 *17:9 0
8 *6:11 *27:17 0
9 *6:11 *73:33 0
10 *6:11 *82:36 0
11 *6:17 *82:36 0
12 *6:17 *229:10 0.00129719
*RES
1 sel[0] *6:11 43.9578 
2 *6:11 *6:17 49.0022 
3 *6:17 *531:A 20 
*END

*D_NET *7 0.00216283
*CONN
*P sel[1] I
*I *542:A I *D sg13g2_buf_1
*CAP
1 sel[1] 0.000766442
2 *542:A 0
3 *7:13 0.000766442
4 *7:13 *16:9 0
5 *7:13 *27:17 0
6 *7:13 *73:33 0.000629944
7 *7:13 *196:12 0
8 *6:11 *7:13 0
*RES
1 sel[1] *7:13 48.137 
2 *7:13 *542:A 40 
*END

*D_NET *8 0.00618134
*CONN
*P sel[2] I
*I *552:A I *D sg13g2_buf_1
*CAP
1 sel[2] 0.00154422
2 *552:A 0
3 *8:25 0.00154422
4 *8:25 *333:A 0.00112263
5 *8:25 *450:TE_B 0
6 *8:25 *9:15 0
7 *8:25 *24:9 0
8 *8:25 *25:11 0.000757915
9 *8:25 *30:15 0.000242281
10 *8:25 *68:23 0
11 *8:25 *186:26 4.78772e-05
12 *8:25 *218:34 0.000357902
13 clk_delayed *8:25 0.0005643
*RES
1 sel[2] *8:25 37.7108 
2 *8:25 *552:A 20 
*END

*D_NET *9 0.00529007
*CONN
*P sel[3] I
*I *553:A I *D sg13g2_buf_1
*CAP
1 sel[3] 0.00162374
2 *553:A 0
3 *9:15 0.00162374
4 *9:15 *333:A 0
5 *9:15 *11:9 0.000923188
6 *9:15 *12:11 0
7 *9:15 *30:15 0.000696216
8 *9:15 *115:20 0.000133209
9 *9:15 *221:16 0
10 *9:15 *232:22 0.000289983
11 *9:15 *246:12 0
12 clk_delayed *9:15 0
13 *8:25 *9:15 0
*RES
1 sel[3] *9:15 37.0774 
2 *9:15 *553:A 20 
*END

*D_NET *10 0.00241821
*CONN
*P trim[0] I
*I *554:A I *D sg13g2_buf_1
*CAP
1 trim[0] 0.00100007
2 *554:A 0
3 *10:11 0.00100007
4 *10:11 *399:A 0
5 *10:11 *442:A 0
6 *10:11 *442:Z 0
7 *10:11 *13:13 0
8 *10:11 *40:31 0
9 *10:11 *88:8 0.000289417
10 *10:11 *124:12 0
11 *10:11 *191:14 0
12 *10:11 *234:37 0.000128662
13 *609:A *10:11 0
*RES
1 trim[0] *10:11 30.2691 
2 *10:11 *554:A 40 
*END

*D_NET *11 0.0056435
*CONN
*P trim[10] I
*I *555:A I *D sg13g2_buf_1
*CAP
1 trim[10] 0.00135714
2 *555:A 0
3 *11:15 0.000145784
4 *11:9 0.00150292
5 *11:9 *24:9 0
6 *11:9 *199:12 0.000435579
7 *11:9 *199:20 0.00127888
8 *11:9 *221:16 0
9 *11:15 *221:16 0
10 *9:15 *11:9 0.000923188
*RES
1 trim[10] *11:9 34.8526 
2 *11:9 *11:15 41.339 
3 *11:15 *555:A 20 
*END

*D_NET *12 0.00437329
*CONN
*P trim[11] I
*I *556:A I *D sg13g2_buf_1
*CAP
1 trim[11] 0.00119153
2 *556:A 0
3 *12:11 0.00119153
4 *12:11 *24:15 0.000534304
5 *12:11 *25:11 0
6 *12:11 *221:16 0.00121351
7 *12:11 *232:22 0.000242423
8 *9:15 *12:11 0
*RES
1 trim[11] *12:11 32.9162 
2 *12:11 *556:A 20 
*END

*D_NET *13 0.00163982
*CONN
*P trim[12] I
*I *557:A I *D sg13g2_buf_1
*CAP
1 trim[12] 0.00081991
2 *557:A 0
3 *13:13 0.00081991
4 *13:13 *538:A 0
5 *13:13 *21:9 0
6 *609:A *13:13 0
7 *10:11 *13:13 0
*RES
1 trim[12] *13:13 49.5893 
2 *13:13 *557:A 20 
*END

*D_NET *14 0.00619016
*CONN
*P trim[13] I
*I *558:A I *D sg13g2_buf_1
*CAP
1 trim[13] 0.00164141
2 *558:A 0.000126163
3 *14:13 0.00176757
4 *14:13 *354:A 0
5 *14:13 *21:9 0
6 *14:13 *40:11 0
7 *14:13 *40:17 0
8 *14:13 *42:8 0
9 *14:13 *42:17 0
10 *14:13 *106:55 0
11 *14:13 *234:14 0.00265502
*RES
1 trim[13] *14:13 38.6533 
2 *14:13 *558:A 40.9682 
*END

*D_NET *15 0.00610408
*CONN
*P trim[14] I
*I *532:A I *D sg13g2_buf_1
*CAP
1 trim[14] 0.00120817
2 *532:A 4.66662e-05
3 *15:19 0.000105687
4 *15:13 0.0017972
5 *15:9 0.00294635
6 *532:A *440:A 0
7 *532:A *442:Z 0
8 *15:9 *26:11 0
*RES
1 trim[14] *15:9 34.9556 
2 *15:9 *15:13 42.8454 
3 *15:13 *15:19 40.5356 
4 *15:19 *532:A 40.5356 
*END

*D_NET *16 0.00387279
*CONN
*P trim[15] I
*I *533:A I *D sg13g2_buf_1
*CAP
1 trim[15] 0.00148378
2 *533:A 0
3 *16:9 0.00148378
4 *16:9 *465:TE_B 8.02267e-05
5 *16:9 *26:11 0.000824991
6 *16:9 *73:33 0
7 *16:9 *168:12 0
8 *7:13 *16:9 0
*RES
1 trim[15] *16:9 34.7084 
2 *16:9 *533:A 20 
*END

*D_NET *17 0.0143084
*CONN
*P trim[16] I
*I *534:A I *D sg13g2_buf_1
*CAP
1 trim[16] 0.00114647
2 *534:A 0
3 *17:19 0.00239095
4 *17:15 0.00379141
5 *17:9 0.00254693
6 *17:9 *477:TE_B 0.000466594
7 *17:9 *504:A 0
8 *17:9 *568:A 0
9 *17:9 *592:A 0
10 *17:9 *28:17 0
11 *17:9 *76:6 0
12 *17:9 *94:28 0
13 *17:15 *479:Z 0
14 *17:15 *97:16 0
15 *17:15 *135:10 0.000502169
16 *17:15 *169:41 0
17 *17:15 *194:8 0.00214126
18 *17:15 *208:19 0
19 *17:15 *218:10 0
20 *17:15 *230:21 0
21 *17:19 *97:24 0
22 *17:19 *102:12 0.0012481
23 *17:19 *142:8 0
24 *17:19 *148:15 0
25 *17:19 *148:21 0
26 *17:19 *153:25 0
27 *17:19 *154:38 0
28 *17:19 *155:20 7.45698e-05
29 *17:19 *169:29 0
30 *17:19 *218:10 0
31 *17:19 *230:21 0
32 *6:11 *17:9 0
*RES
1 trim[16] *17:9 32.6999 
2 *17:9 *17:15 37.1701 
3 *17:15 *17:19 40.6206 
4 *17:19 *534:A 20 
*END

*D_NET *18 0.00837753
*CONN
*P trim[17] I
*I *535:A I *D sg13g2_buf_1
*CAP
1 trim[17] 0.000852182
2 *535:A 0.00212891
3 *18:19 0.00298109
4 *535:A *367:A 0
5 *535:A *411:A 0
6 *535:A *418:A 0
7 *535:A *481:A 0.00200259
8 *535:A *79:6 0
9 *535:A *137:61 0
10 *535:A *166:16 0
11 *535:A *239:16 0
12 *535:A *250:12 0
13 *18:19 *392:A 0
14 *18:19 *31:9 0
15 *18:19 *79:6 0.000412754
16 *18:19 *166:16 0
*RES
1 trim[17] *18:19 49.3421 
2 *18:19 *535:A 40.7236 
*END

*D_NET *19 0.0122444
*CONN
*P trim[18] I
*I *536:A I *D sg13g2_buf_1
*CAP
1 trim[18] 0.00212296
2 *536:A 0
3 *19:17 0
4 *19:13 0.00305284
5 *19:11 0.00305284
6 *19:9 0.00212296
7 *19:9 *22:11 0
8 *19:9 *29:9 0
9 *19:9 *30:9 0
10 *19:9 *31:9 0
11 *19:9 *229:10 0
12 *19:13 *20:39 0.00177753
13 *19:13 *29:13 0
14 *19:13 *172:16 0.000115236
*RES
1 trim[18] *19:9 40.2601 
2 *19:9 *19:11 20 
3 *19:11 *19:13 32.1154 
4 *19:13 *19:17 40 
5 *19:17 *536:A 20 
*END

*D_NET *20 0.0132293
*CONN
*P trim[19] I
*I *537:A I *D sg13g2_buf_1
*CAP
1 trim[19] 0.0012445
2 *537:A 0
3 *20:39 0.00115138
4 *20:35 0.00120403
5 *20:29 0.00137376
6 *20:23 0.00229625
7 *20:17 0.00221963
8 *20:17 *31:9 0
9 *20:17 *144:20 0
10 *20:17 *152:8 0.000606939
11 *20:17 *181:12 0
12 *20:23 *493:Z 0
13 *20:23 *501:Z 0
14 *20:23 *511:Z 0
15 *20:23 *143:21 0
16 *20:23 *148:21 0
17 *20:23 *152:12 0
18 *20:23 *159:6 0
19 *20:23 *159:13 0
20 *20:23 *170:34 0.000207525
21 *20:23 *198:12 0
22 *20:23 *230:44 0
23 *20:29 *430:A 0
24 *20:29 *499:A 0
25 *20:29 *525:A 0
26 *20:29 *583:A 0
27 *20:29 *28:25 0
28 *20:29 *140:16 0
29 *20:29 *158:22 0
30 *20:29 *159:15 0
31 *20:29 *159:31 0
32 *20:29 *170:26 0
33 *20:29 *184:44 0.00114777
34 *20:29 *197:14 0
35 *20:29 *251:8 0
36 *20:35 *251:14 0
37 *20:39 *29:13 0
38 *20:39 *176:12 0
39 *19:13 *20:39 0.00177753
*RES
1 trim[19] *20:17 32.5248 
2 *20:17 *20:23 48.755 
3 *20:23 *20:29 32.8441 
4 *20:29 *20:35 40.3502 
5 *20:35 *20:39 33.5136 
6 *20:39 *537:A 40 
*END

*D_NET *21 0.0048527
*CONN
*P trim[1] I
*I *538:A I *D sg13g2_buf_1
*CAP
1 trim[1] 0.00115141
2 *538:A 6.27927e-05
3 *21:9 0.0012142
4 *538:A *440:TE_B 0
5 *21:9 *87:17 0.0024243
6 *21:9 *191:14 0
7 *13:13 *538:A 0
8 *13:13 *21:9 0
9 *14:13 *21:9 0
*RES
1 trim[1] *21:9 36.9332 
2 *21:9 *538:A 40.6695 
*END

*D_NET *22 0.0197176
*CONN
*P trim[20] I
*I *539:A I *D sg13g2_buf_1
*CAP
1 trim[20] 0.000641768
2 *539:A 0
3 *22:17 0
4 *22:13 0.00440431
5 *22:11 0.00504608
6 *22:11 *229:10 0.000925382
7 *22:13 *29:13 0.0050335
8 *22:13 *174:10 0
9 *22:13 *184:73 0.00366651
10 *19:9 *22:11 0
*RES
1 trim[20] *22:11 46.8495 
2 *22:11 *22:13 48.9868 
3 *22:13 *22:17 40 
4 *22:17 *539:A 20 
*END

*D_NET *23 0.0084133
*CONN
*P trim[21] I
*I *540:A I *D sg13g2_buf_1
*CAP
1 trim[21] 0.00138346
2 *540:A 0
3 *23:17 0.000747019
4 *23:9 0.00213048
5 *23:9 *30:15 0.0024773
6 *23:9 *32:9 0.00157248
7 *23:17 *30:15 0
8 *23:17 *169:14 0
9 *23:17 *175:14 0
10 *23:17 *197:14 0.000102554
*RES
1 trim[21] *23:9 37.4791 
2 *23:9 *23:17 47.1585 
3 *23:17 *540:A 20 
*END

*D_NET *24 0.00604564
*CONN
*P trim[22] I
*I *541:A I *D sg13g2_buf_1
*CAP
1 trim[22] 0.0012753
2 *541:A 0
3 *24:15 0.000328753
4 *24:9 0.00160405
5 *24:9 *116:8 2.20486e-05
6 *24:9 *176:12 0.00207199
7 *24:9 *199:20 0
8 *24:15 *232:22 0.000209198
9 *8:25 *24:9 0
10 *11:9 *24:9 0
11 *12:11 *24:15 0.000534304
*RES
1 trim[22] *24:9 35.4088 
2 *24:9 *24:15 43.5638 
3 *24:15 *541:A 20 
*END

*D_NET *25 0.00470728
*CONN
*P trim[23] I
*I *543:A I *D sg13g2_buf_1
*CAP
1 trim[23] 0.00137003
2 *543:A 0
3 *25:11 0.00137003
4 *25:11 *559:A 0.000241567
5 *25:11 *68:23 0
6 *25:11 *115:20 0
7 *25:11 *178:12 0
8 *25:11 *188:8 0.000531729
9 *25:11 *232:22 0
10 *25:11 *232:35 0
11 clk_delayed *25:11 0.00043601
12 *8:25 *25:11 0.000757915
13 *12:11 *25:11 0
*RES
1 trim[23] *25:11 33.9668 
2 *25:11 *543:A 20 
*END

*D_NET *26 0.00318798
*CONN
*P trim[2] I
*I *544:A I *D sg13g2_buf_1
*CAP
1 trim[2] 0.0011815
2 *544:A 0
3 *26:11 0.0011815
4 *26:11 *179:8 0
5 *15:9 *26:11 0
6 *16:9 *26:11 0.000824991
*RES
1 trim[2] *26:11 33.5136 
2 *26:11 *544:A 20 
*END

*D_NET *27 0.00206965
*CONN
*P trim[3] I
*I *545:A I *D sg13g2_buf_1
*CAP
1 trim[3] 0.00101095
2 *545:A 0
3 *27:17 0.00101095
4 *27:17 *494:A 4.77425e-05
5 *27:17 *576:A 0
6 *27:17 *144:8 0
7 *27:17 *145:16 0
8 *27:17 *167:47 0
9 *27:17 *170:47 0
10 *27:17 *172:79 0
11 *27:17 *212:10 0
12 *27:17 *212:17 0
13 *6:11 *27:17 0
14 *7:13 *27:17 0
*RES
1 trim[3] *27:17 30.2388 
2 *27:17 *545:A 20 
*END

*D_NET *28 0.0166076
*CONN
*P trim[4] I
*I *546:A I *D sg13g2_buf_1
*CAP
1 trim[4] 0.00402446
2 *546:A 0.00013306
3 *28:35 0.000959624
4 *28:25 0.00147649
5 *28:17 0.00467439
6 *546:A *30:9 0
7 *546:A *139:14 0
8 *546:A *181:12 0
9 *28:17 *52:13 0
10 *28:17 *81:16 0.000130212
11 *28:17 *81:22 0
12 *28:17 *94:24 0
13 *28:17 *98:12 0.00231938
14 *28:17 *158:22 0
15 *28:17 *161:32 0
16 *28:17 *164:10 0
17 *28:17 *167:47 0
18 *28:17 *184:30 0
19 *28:17 *185:20 0
20 *28:17 *196:12 0
21 *28:17 *204:8 0
22 *28:17 *242:16 0
23 *28:17 *242:25 0
24 *28:17 *251:14 0
25 *28:17 *254:22 0
26 *28:25 *136:18 0.000128248
27 *28:25 *158:22 4.79124e-05
28 *28:25 *197:14 0.000857778
29 *28:35 *486:A 0
30 *28:35 *30:15 0.000792046
31 *28:35 *139:8 0.000112826
32 *28:35 *140:10 0.000242225
33 *28:35 *175:14 0.000208587
34 *28:35 *218:24 0.000500329
35 *17:9 *28:17 0
36 *20:29 *28:25 0
*RES
1 trim[4] *28:17 39.8507 
2 *28:17 *28:25 47.313 
3 *28:25 *28:35 49.4245 
4 *28:35 *546:A 41.339 
*END

*D_NET *29 0.0152095
*CONN
*P trim[5] I
*I *547:A I *D sg13g2_buf_1
*CAP
1 trim[5] 0.00181846
2 *547:A 0
3 *29:17 0
4 *29:13 0.00326954
5 *29:11 0.00326954
6 *29:9 0.00181846
7 *29:9 *31:9 0
8 *29:13 *172:16 0
9 *19:9 *29:9 0
10 *19:13 *29:13 0
11 *20:39 *29:13 0
12 *22:13 *29:13 0.0050335
*RES
1 trim[5] *29:9 41.527 
2 *29:9 *29:11 20 
3 *29:11 *29:13 35.7925 
4 *29:13 *29:17 40 
5 *29:17 *547:A 20 
*END

*D_NET *30 0.0210238
*CONN
*P trim[6] I
*I *548:A I *D sg13g2_buf_1
*CAP
1 trim[6] 0.00160571
2 *548:A 0
3 *30:15 0.00274693
4 *30:11 0.00274693
5 *30:9 0.00160571
6 *30:9 *508:A 0
7 *30:9 *82:8 0
8 *30:9 *144:20 0.00124302
9 *30:9 *152:8 0
10 *30:9 *181:12 0
11 *30:9 *229:10 0.00390434
12 *30:15 *32:9 0
13 *30:15 *175:14 0
14 *30:15 *186:26 0
15 *30:15 *218:24 0.00296336
16 *30:15 *246:12 0
17 *546:A *30:9 0
18 *8:25 *30:15 0.000242281
19 *9:15 *30:15 0.000696216
20 *19:9 *30:9 0
21 *23:9 *30:15 0.0024773
22 *23:17 *30:15 0
23 *28:35 *30:15 0.000792046
*RES
1 trim[6] *30:9 41.8669 
2 *30:9 *30:11 20 
3 *30:11 *30:15 33.578 
4 *30:15 *548:A 20 
*END

*D_NET *31 0.0111546
*CONN
*P trim[7] I
*I *549:A I *D sg13g2_buf_1
*CAP
1 trim[7] 0.00165667
2 *549:A 0
3 *31:19 4.37077e-05
4 *31:13 0.00245153
5 *31:9 0.00406449
6 *31:9 *229:10 0
7 *31:13 *150:14 0
8 *31:13 *182:52 0.00277806
9 *31:19 *95:8 8.00842e-05
10 *31:19 *166:16 8.00842e-05
11 *18:19 *31:9 0
12 *19:9 *31:9 0
13 *20:17 *31:9 0
14 *29:9 *31:9 0
*RES
1 trim[7] *31:9 38.8696 
2 *31:9 *31:13 45.4101 
3 *31:13 *31:19 40.5356 
4 *31:19 *549:A 20 
*END

*D_NET *32 0.00714208
*CONN
*P trim[8] I
*I *550:A I *D sg13g2_buf_1
*CAP
1 trim[8] 0.00127006
2 *550:A 0
3 *32:15 0.000780327
4 *32:9 0.00205039
5 *32:15 *350:B 2.48105e-05
6 *32:15 *453:A 0.000575005
7 *32:15 *36:35 0
8 *32:15 *38:31 0.000231759
9 *32:15 *39:28 0
10 *32:15 *68:23 0.000125058
11 *32:15 *244:8 0.000332167
12 *32:15 *250:12 0.000180021
13 *23:9 *32:9 0.00157248
14 *30:15 *32:9 0
*RES
1 trim[8] *32:9 34.8526 
2 *32:9 *32:15 48.2606 
3 *32:15 *550:A 20 
*END

*D_NET *33 0.00393144
*CONN
*P trim[9] I
*I *551:A I *D sg13g2_buf_1
*CAP
1 trim[9] 0.00106845
2 *551:A 0
3 *33:13 0.00106845
4 *33:13 *345:A 0.000145113
5 *33:13 *345:B 0.000177455
6 *33:13 *349:B 4.77425e-05
7 *33:13 *68:23 0.000793065
8 *33:13 *186:26 0
9 *33:13 *218:34 0.000631167
10 *33:13 *255:8 0
*RES
1 trim[9] *33:13 31.9068 
2 *33:13 *551:A 20 
*END

*D_NET *34 0.0108838
*CONN
*I *348:A I *D sg13g2_nand2_1
*I *336:A I *D sg13g2_nand2_1
*I *343:A I *D sg13g2_nand2_1
*I *334:Y O *D sg13g2_nor2_1
*CAP
1 *348:A 0
2 *336:A 0
3 *343:A 0.000320415
4 *334:Y 0.00032309
5 *34:36 0.00143797
6 *34:30 0.00168086
7 *34:22 0.00117528
8 *34:16 0.00172167
9 *34:14 0.00136486
10 *34:8 0.00057825
11 *343:A *38:31 0
12 *343:A *45:51 0
13 *343:A *62:55 0
14 *34:8 *74:16 0
15 *34:8 *209:19 0
16 *34:14 *66:16 0.000337335
17 *34:14 *220:10 0
18 *34:16 *560:A 0.00155686
19 *34:16 *106:35 0
20 *34:16 *107:17 0
21 *34:16 *123:13 0
22 *34:16 *233:14 0
23 *34:22 *119:33 0
24 *34:22 *126:22 0
25 *34:22 *192:10 0
26 *34:22 *231:19 0
27 *34:22 *233:14 0
28 *34:22 *243:10 0.000240755
29 *34:30 *338:A 0
30 *34:30 *90:8 0
31 *34:30 *185:55 0
32 *34:30 *242:151 0
33 *34:30 *242:174 0
34 *34:30 *246:18 0
35 *34:30 *254:10 0
36 *34:36 *44:29 0
37 *34:36 *44:51 0
38 *34:36 *185:41 0.000146447
39 *34:36 *244:20 0
*RES
1 *334:Y *34:8 42.3278 
2 *34:8 *34:14 42.4823 
3 *34:14 *34:16 13.9462 
4 *34:16 *34:22 26.3242 
5 *34:22 *34:30 45.0882 
6 *34:30 *34:36 30.712 
7 *34:36 *343:A 43.193 
8 *34:22 *336:A 20 
9 *34:16 *348:A 40 
*END

*D_NET *35 0.0132575
*CONN
*I *341:C I *D sg13g2_nand3_1
*I *340:A I *D sg13g2_nand2_1
*I *336:B I *D sg13g2_nand2_1
*I *338:A I *D sg13g2_nand2_1
*I *335:Y O *D sg13g2_nor2_1
*CAP
1 *341:C 0
2 *340:A 0.000198695
3 *336:B 0
4 *338:A 0.00151401
5 *335:Y 0.000117215
6 *35:56 0.00144842
7 *35:50 0.00131097
8 *35:46 0.00156392
9 *35:10 0.00161355
10 *35:6 0.00171943
11 *338:A *338:B 0
12 *338:A *428:A 0
13 *338:A *596:Z 0.000450599
14 *338:A *607:A 0.000531057
15 *338:A *44:6 0
16 *338:A *130:14 0
17 *338:A *161:14 0
18 *338:A *242:127 0.000290735
19 *338:A *242:129 0.000144726
20 *338:A *247:16 0
21 *35:6 *192:10 0
22 *35:6 *199:41 4.75442e-05
23 *35:6 *243:10 0
24 *35:10 *192:10 0
25 *35:10 *242:127 7.46854e-05
26 *35:10 *243:10 0
27 *35:46 *177:86 0
28 *35:46 *179:14 0.000715908
29 *35:46 *192:16 0
30 *35:46 *242:109 0.000818286
31 *35:50 *66:16 0
32 *35:56 *363:A 0
33 *35:56 *37:12 0.000390705
34 *35:56 *50:11 0
35 *35:56 *66:16 0
36 *35:56 *95:8 0.000307012
37 *35:56 *166:16 0
38 *35:56 *166:86 0
39 *35:56 *177:80 0
40 *35:56 *249:10 0
41 *34:30 *338:A 0
*RES
1 *335:Y *35:6 20.9682 
2 *35:6 *35:10 1.133 
3 *35:10 *338:A 35.7178 
4 *35:10 *336:B 20 
5 *35:6 *35:46 35.9238 
6 *35:46 *35:50 20.5356 
7 *35:50 *35:56 31.6236 
8 *35:56 *340:A 41.4008 
9 *35:50 *341:C 20 
*END

*D_NET *36 0.00937856
*CONN
*I *349:A I *D sg13g2_nand2_1
*I *344:A I *D sg13g2_nand2_1
*I *338:B I *D sg13g2_nand2_1
*I *337:Y O *D sg13g2_nor2b_1
*CAP
1 *349:A 6.64557e-05
2 *344:A 0.000329089
3 *338:B 0.000103964
4 *337:Y 0.000535479
5 *36:35 0.00168324
6 *36:12 0.00202899
7 *36:10 0.00117281
8 *338:B *247:16 8.02269e-05
9 *344:A *345:B 0
10 *344:A *525:A 0.000273592
11 *344:A *186:26 0.000240596
12 *344:A *255:8 0.000111286
13 *349:A *349:B 0
14 *349:A *186:26 9.69079e-05
15 *349:A *255:8 1.54008e-05
16 *36:10 *342:B_N 0.000241512
17 *36:10 *38:10 0
18 *36:10 *183:22 0
19 *36:12 *63:11 0
20 *36:12 *67:10 0
21 *36:12 *166:48 0
22 *36:12 *182:48 0
23 *36:12 *184:14 0
24 *36:35 *162:20 0
25 *36:35 *184:14 0.00107784
26 *36:35 *184:67 0
27 *36:35 *244:8 0.000332323
28 *36:35 *250:12 7.44263e-05
29 *36:35 *255:16 0.000914418
30 *338:A *338:B 0
31 *32:15 *36:35 0
*RES
1 *337:Y *36:10 44.9955 
2 *36:10 *36:12 5.2942 
3 *36:12 *338:B 40.9682 
4 *36:12 *36:35 33.3797 
5 *36:35 *344:A 23.3475 
6 *36:35 *349:A 20.7519 
*END

*D_NET *37 0.0122221
*CONN
*I *350:A I *D sg13g2_nand2_1
*I *345:A I *D sg13g2_nand2_1
*I *340:B I *D sg13g2_nand2_1
*I *339:Y O *D sg13g2_nor2b_1
*CAP
1 *350:A 0
2 *345:A 0.000471929
3 *340:B 0.000203714
4 *339:Y 2.66877e-05
5 *37:35 0.000816488
6 *37:27 0.00208527
7 *37:12 0.00117361
8 *37:6 0.00273729
9 *340:B *177:80 2.16652e-05
10 *345:A *345:B 0
11 *345:A *350:B 0
12 *345:A *68:17 0.000272885
13 *345:A *68:23 1.54008e-05
14 *345:A *172:32 0
15 *37:6 *177:54 0
16 *37:6 *183:22 3.23694e-05
17 *37:12 *50:11 0
18 *37:12 *81:22 0.00011265
19 *37:12 *167:31 0.00258544
20 *37:12 *177:54 0
21 *37:12 *183:22 0.000144284
22 *37:27 *347:A 0
23 *37:27 *453:TE_B 0
24 *37:27 *561:A 0
25 *37:27 *44:29 0
26 *37:27 *45:13 0
27 *37:27 *45:15 0
28 *37:27 *86:8 0
29 *37:27 *166:38 0.000503098
30 *37:27 *167:31 0
31 *37:27 *200:8 0
32 *37:27 *244:20 0
33 *37:27 *247:24 0
34 *37:35 *68:17 1.54008e-05
35 *37:35 *68:23 6.4711e-05
36 *37:35 *182:30 0.000403384
37 *33:13 *345:A 0.000145113
38 *35:56 *37:12 0.000390705
*RES
1 *339:Y *37:6 20.3193 
2 *37:6 *37:12 34.0183 
3 *37:12 *340:B 41.5347 
4 *37:6 *37:27 37.1598 
5 *37:27 *37:35 23.5844 
6 *37:35 *345:A 24.6968 
7 *37:35 *350:A 20 
*END

*D_NET *38 0.0112761
*CONN
*I *343:B I *D sg13g2_nand2_1
*I *345:B I *D sg13g2_nand2_1
*I *344:B I *D sg13g2_nand2_1
*I *346:C I *D sg13g2_nand3_1
*I *342:Y O *D sg13g2_nor2b_1
*CAP
1 *343:B 0
2 *345:B 0.000280828
3 *344:B 0.000291319
4 *346:C 0.000134805
5 *342:Y 0.000405606
6 *38:45 0.00126552
7 *38:31 0.00135682
8 *38:12 0.000798247
9 *38:10 0.000405606
10 *344:B *525:A 0.000268616
11 *344:B *186:26 9.72278e-05
12 *344:B *218:24 0.000366211
13 *344:B *255:16 7.51285e-05
14 *346:C *346:B 0.000240749
15 *346:C *607:A 0.000240749
16 *38:10 *166:38 0.000112426
17 *38:10 *184:14 0.00076041
18 *38:10 *250:12 0.000758831
19 *38:31 *346:B 0.000112426
20 *38:31 *607:A 9.7025e-05
21 *38:31 *39:16 0.00128534
22 *38:31 *39:28 0
23 *38:31 *203:8 0
24 *38:31 *213:19 0
25 *38:31 *214:26 0.000495976
26 *38:31 *244:20 0
27 *38:31 *250:12 0
28 *38:45 *112:11 0
29 *38:45 *112:45 0
30 *38:45 *172:24 0
31 *38:45 *185:20 0
32 *38:45 *255:16 0.00101701
33 *343:A *38:31 0
34 *344:A *345:B 0
35 *345:A *345:B 0
36 *32:15 *38:31 0.000231759
37 *33:13 *345:B 0.000177455
38 *36:10 *38:10 0
*RES
1 *342:Y *38:10 45.6135 
2 *38:10 *38:12 20 
3 *38:12 *346:C 21.6171 
4 *38:12 *38:31 48.9095 
5 *38:31 *38:45 27.2265 
6 *38:45 *344:B 43.5406 
7 *38:45 *345:B 42.4823 
8 *38:31 *343:B 20 
*END

*D_NET *39 0.0142041
*CONN
*I *348:B I *D sg13g2_nand2_1
*I *351:C I *D sg13g2_nand3_1
*I *350:B I *D sg13g2_nand2_1
*I *349:B I *D sg13g2_nand2_1
*I *347:Y O *D sg13g2_nor2b_1
*CAP
1 *348:B 0.000159571
2 *351:C 0
3 *350:B 4.25851e-05
4 *349:B 9.40168e-05
5 *347:Y 0
6 *39:75 0.0010714
7 *39:69 0.00118691
8 *39:28 0.000623429
9 *39:22 0.00069731
10 *39:16 0.000724898
11 *39:6 0.00081638
12 *39:4 0.000577044
13 *348:B *595:A 0.000272209
14 *348:B *126:22 0
15 *348:B *254:10 0.000175635
16 *349:B *186:26 0
17 *39:6 *351:B 8.00842e-05
18 *39:6 *605:A 0.000225651
19 *39:6 *126:22 0.000111712
20 *39:6 *167:27 0.000370582
21 *39:16 *346:B 0
22 *39:16 *351:B 1.54008e-05
23 *39:16 *605:A 4.77425e-05
24 *39:16 *126:10 0.00012706
25 *39:16 *185:41 0
26 *39:16 *250:12 0.00155067
27 *39:28 *453:A 0.000595435
28 *39:28 *68:23 0.000124748
29 *39:28 *86:8 0
30 *39:28 *244:20 0
31 *39:69 *347:A 2.20966e-05
32 *39:69 *199:51 0.000181192
33 *39:75 *562:A 0.000856906
34 *39:75 *167:10 0.000370574
35 *39:75 *188:42 0.00172498
36 *39:75 *199:43 0
37 *39:75 *231:19 0
38 *345:A *350:B 0
39 *349:A *349:B 0
40 *32:15 *350:B 2.48105e-05
41 *32:15 *39:28 0
42 *33:13 *349:B 4.77425e-05
43 *38:31 *39:16 0.00128534
44 *38:31 *39:28 0
*RES
1 *347:Y *39:4 20 
2 *39:4 *39:6 3.3475 
3 *39:6 *39:16 48.343 
4 *39:16 *39:22 42.0806 
5 *39:22 *39:28 24.6247 
6 *39:28 *349:B 40.9167 
7 *39:28 *350:B 40.551 
8 *39:6 *351:C 20 
9 *39:4 *39:69 43.2548 
10 *39:69 *39:75 31.1755 
11 *39:75 *348:B 41.8334 
*END

*D_NET *40 0.00386537
*CONN
*I *399:A I *D sg13g2_buf_16
*I *590:A I *D sg13g2_buf_1
*I *352:X O *D sg13g2_buf_16
*CAP
1 *399:A 0.000104536
2 *590:A 0
3 *352:X 0
4 *40:31 0.000388625
5 *40:17 0.000625784
6 *40:11 0.00182815
7 *40:6 0.000918275
8 *40:11 *92:8 0
9 *40:11 *234:14 0
10 *40:17 *446:A 0
11 *40:17 *92:8 0
12 *40:17 *104:18 0
13 *40:17 *234:14 0
14 *609:A *399:A 0
15 *609:A *40:31 0
16 *10:11 *399:A 0
17 *10:11 *40:31 0
18 *14:13 *40:11 0
19 *14:13 *40:17 0
*RES
1 *352:X *40:6 40 
2 *40:6 *40:11 8.0134 
3 *40:11 *40:17 5.6856 
4 *40:17 *590:A 40 
5 *40:11 *40:31 22.4823 
6 *40:31 *399:A 20.9682 
*END

*D_NET *41 0.00336625
*CONN
*I *400:A I *D sg13g2_buf_16
*I *377:A I *D sg13g2_buf_16
*I *353:X O *D sg13g2_buf_16
*CAP
1 *400:A 0
2 *377:A 0.000122152
3 *353:X 0
4 *41:33 0.000507125
5 *41:28 0.000539035
6 *41:15 0.000972732
7 *41:6 0.00102194
8 *41:4 0.000203267
9 *377:A *64:8 0
10 *377:A *220:10 0
11 *41:15 *383:A 0
12 *41:15 *42:17 0
13 *41:15 *64:8 0
14 *41:15 *106:55 0
15 *41:15 *220:10 0
16 *41:33 *124:12 0
17 *41:33 *191:14 0
*RES
1 *353:X *41:4 20 
2 *41:4 *41:6 1.4008 
3 *41:6 *41:15 8.1576 
4 *41:15 *377:A 21.1845 
5 *41:4 *41:28 20.3193 
6 *41:28 *41:33 4.7998 
7 *41:33 *400:A 40 
*END

*D_NET *42 0.00295933
*CONN
*I *404:A I *D sg13g2_buf_16
*I *383:A I *D sg13g2_buf_16
*I *354:X O *D sg13g2_buf_16
*CAP
1 *404:A 9.8877e-05
2 *383:A 5.26985e-05
3 *354:X 0.000184324
4 *42:35 0.00063706
5 *42:17 0.00119646
6 *42:8 0.000789905
7 *404:A *352:A 0
8 *42:17 *468:TE_B 0
9 *42:17 *92:8 0
10 *42:17 *216:12 0
11 *42:35 *92:8 0
12 *42:35 *105:17 0
13 *42:35 *220:14 0
14 *609:A *404:A 0
15 *14:13 *42:8 0
16 *14:13 *42:17 0
17 *41:15 *383:A 0
18 *41:15 *42:17 0
*RES
1 *354:X *42:8 21.9982 
2 *42:8 *42:17 25.5826 
3 *42:17 *383:A 40.5356 
4 *42:17 *42:35 25.5826 
5 *42:35 *404:A 20.9682 
*END

*D_NET *43 0.000911321
*CONN
*I *378:A I *D sg13g2_buf_16
*I *355:X O *D sg13g2_buf_16
*CAP
1 *378:A 0.000107278
2 *355:X 3.03513e-05
3 *43:11 0.000425309
4 *43:6 0.000348383
5 *378:A *468:TE_B 0
6 *378:A *66:16 0
7 *378:A *220:10 0
8 *43:6 *66:16 0
9 *43:6 *220:10 0
10 *43:11 *66:16 0
11 *43:11 *220:10 0
*RES
1 *355:X *43:6 20.2575 
2 *43:6 *43:11 2.5441 
3 *43:11 *378:A 20.9682 
*END

*D_NET *44 0.0035406
*CONN
*I *401:A I *D sg13g2_buf_16
*I *577:A I *D sg13g2_buf_1
*I *356:X O *D sg13g2_buf_16
*CAP
1 *401:A 0
2 *577:A 6.36628e-05
3 *356:X 0.000173338
4 *44:51 0.000612808
5 *44:29 0.000435584
6 *44:21 0.0015333
7 *44:13 0.000548568
8 *44:6 0.000173338
9 *577:A *357:A 0
10 *577:A *45:51 0
11 *577:A *230:44 0
12 *44:6 *428:A 0
13 *44:21 *185:41 0
14 *44:21 *213:19 0
15 *44:29 *244:20 0
16 *44:51 *113:43 0
17 *44:51 *183:22 0
18 *44:51 *185:41 0
19 *338:A *44:6 0
20 *34:36 *44:29 0
21 *34:36 *44:51 0
22 *37:27 *44:29 0
*RES
1 *356:X *44:6 21.4008 
2 *44:6 *44:13 40 
3 *44:13 *44:21 45.0264 
4 *44:21 *44:29 22.9973 
5 *44:29 *577:A 40.7673 
6 *44:21 *44:51 26.3242 
7 *44:51 *401:A 40 
*END

*D_NET *45 0.00547031
*CONN
*I *380:A I *D sg13g2_buf_16
*I *587:A I *D sg13g2_buf_1
*I *357:X O *D sg13g2_buf_16
*CAP
1 *380:A 0.000189872
2 *587:A 8.29459e-05
3 *357:X 0.000110999
4 *45:51 0.00151637
5 *45:15 0.000653486
6 *45:13 0.00235134
7 *45:6 0.000565304
8 *380:A *606:A 0
9 *380:A *62:27 0
10 *380:A *242:14 0
11 *587:A *111:25 0
12 *587:A *171:8 0
13 *587:A *172:8 0
14 *45:6 *161:14 0
15 *45:13 *171:18 0
16 *45:15 *171:18 0
17 *45:51 *357:A 0
18 *45:51 *62:47 0
19 *45:51 *185:20 0
20 *45:51 *185:47 0
21 *45:51 *214:26 0
22 *45:51 *242:14 0
23 *343:A *45:51 0
24 *577:A *45:51 0
25 *37:27 *45:13 0
26 *37:27 *45:15 0
*RES
1 *357:X *45:6 20.9682 
2 *45:6 *45:13 23.5638 
3 *45:13 *45:15 4.5526 
4 *45:15 *587:A 40.7519 
5 *45:13 *45:51 32.3503 
6 *45:51 *380:A 21.7819 
*END

*D_NET *46 0.00460502
*CONN
*I *403:A I *D sg13g2_buf_16
*I *382:A I *D sg13g2_buf_16
*I *358:X O *D sg13g2_buf_16
*CAP
1 *403:A 0
2 *382:A 0.000137418
3 *358:X 7.36765e-05
4 *46:41 0.00138213
5 *46:32 0.00147385
6 *46:21 0.000555971
7 *46:8 0.000617563
8 *46:6 0.000364404
9 *382:A *454:A 0
10 *382:A *185:55 0
11 *46:8 *454:A 0
12 *46:8 *119:33 0
13 *46:21 *454:A 0
14 *46:21 *119:33 0
15 *46:21 *185:55 0
16 *46:32 *454:A 0
17 *46:32 *119:33 0
18 *46:41 *454:A 0
19 *46:41 *458:Z 0
20 *46:41 *458:TE_B 0
21 *46:41 *461:A 0
22 *46:41 *462:A 0
23 *46:41 *91:27 0
24 *46:41 *119:33 0
25 *46:41 *121:10 0
26 *46:41 *125:10 0
27 *46:41 *210:20 0
*RES
1 *358:X *46:6 20.8446 
2 *46:6 *46:8 2.0497 
3 *46:8 *46:21 4.4702 
4 *46:21 *382:A 21.1845 
5 *46:6 *46:32 0.9682 
6 *46:32 *46:41 33.3076 
7 *46:41 *403:A 40 
*END

*D_NET *47 0.00159079
*CONN
*I *381:A I *D sg13g2_buf_16
*I *359:X O *D sg13g2_buf_16
*CAP
1 *381:A 0.00016279
2 *359:X 0
3 *47:15 0.000795397
4 *47:6 0.000632607
5 *381:A *359:A 0
6 *381:A *188:42 0
7 *381:A *247:24 0
8 *47:15 *359:A 0
9 *47:15 *166:20 0
10 *47:15 *171:18 0
11 *47:15 *188:42 0
12 *47:15 *242:82 0
13 *47:15 *247:24 0
*RES
1 *359:X *47:6 40 
2 *47:6 *47:15 25.7371 
3 *47:15 *381:A 21.8128 
*END

*D_NET *48 0.00188277
*CONN
*I *361:A I *D sg13g2_buf_16
*I *594:A I *D sg13g2_buf_1
*I *360:X O *D sg13g2_buf_16
*CAP
1 *361:A 0
2 *594:A 0
3 *360:X 0.000180961
4 *48:21 0.00024708
5 *48:15 0.000760426
6 *48:6 0.000694307
7 *48:6 *386:A 0
8 *48:6 *51:15 0
9 *48:6 *122:14 0
10 *48:15 *386:A 0
11 *48:15 *49:19 0
12 *48:15 *122:14 0
13 *48:21 *49:19 0
14 *48:21 *71:10 0
15 *48:21 *123:47 0
16 *48:21 *231:31 0
*RES
1 *360:X *48:6 21.4008 
2 *48:6 *48:15 24.532 
3 *48:15 *48:21 2.2557 
4 *48:21 *594:A 40 
5 *48:15 *361:A 40 
*END

*D_NET *49 0.00392052
*CONN
*I *405:A I *D sg13g2_buf_16
*I *385:A I *D sg13g2_buf_16
*I *361:X O *D sg13g2_buf_16
*CAP
1 *405:A 0
2 *385:A 0.000135893
3 *361:X 0.000100749
4 *49:43 0.000101292
5 *49:33 0.00076998
6 *49:19 0.000636574
7 *49:13 0.00162233
8 *49:8 0.000553708
9 *385:A *51:15 0
10 *385:A *177:80 0
11 *49:8 *93:8 0
12 *49:8 *179:8 0
13 *49:13 *74:16 0
14 *49:13 *179:14 0
15 *49:19 *334:B 0
16 *49:19 *386:A 0
17 *49:19 *51:15 0
18 *49:19 *123:25 0
19 *49:19 *177:80 0
20 *49:19 *209:6 0
21 *49:19 *209:19 0
22 *49:33 *73:14 0
23 *49:43 *468:TE_B 0
24 *49:43 *73:22 0
25 *48:15 *49:19 0
26 *48:21 *49:19 0
*RES
1 *361:X *49:8 40.9682 
2 *49:8 *49:13 4.0582 
3 *49:13 *49:19 24.3466 
4 *49:19 *385:A 21.1845 
5 *49:13 *49:33 26.3757 
6 *49:33 *49:43 41.133 
7 *49:43 *405:A 20 
*END

*D_NET *50 0.002733
*CONN
*I *406:A I *D sg13g2_buf_16
*I *387:A I *D sg13g2_buf_16
*I *362:X O *D sg13g2_buf_16
*CAP
1 *406:A 0
2 *387:A 0.000229647
3 *362:X 0
4 *50:15 0.000229647
5 *50:11 0.00113685
6 *50:6 0.00113685
7 *387:A *600:TE_B 0
8 *387:A *601:Z 0
9 *50:11 *126:10 0
10 *50:11 *130:22 0
11 *50:11 *166:20 0
12 *35:56 *50:11 0
13 *37:12 *50:11 0
*RES
1 *362:X *50:6 40 
2 *50:6 *50:11 10.9798 
3 *50:11 *50:15 20 
4 *50:15 *387:A 21.9364 
5 *50:15 *406:A 20 
*END

*D_NET *51 0.00170101
*CONN
*I *386:A I *D sg13g2_buf_16
*I *363:X O *D sg13g2_buf_16
*CAP
1 *386:A 0.000106674
2 *363:X 0.00012807
3 *51:15 0.000722433
4 *51:6 0.000743829
5 *51:6 *127:23 0
6 *51:6 *127:32 0
7 *51:6 *177:80 0
8 *51:15 *92:21 0
9 *51:15 *122:14 0
10 *51:15 *127:23 0
11 *51:15 *177:80 0
12 *385:A *51:15 0
13 *48:6 *386:A 0
14 *48:6 *51:15 0
15 *48:15 *386:A 0
16 *49:19 *386:A 0
17 *49:19 *51:15 0
*RES
1 *363:X *51:6 21.4008 
2 *51:6 *51:15 5.9637 
3 *51:15 *386:A 20.9682 
*END

*D_NET *52 0.00361127
*CONN
*I *576:A I *D sg13g2_buf_1
*I *388:A I *D sg13g2_buf_16
*I *364:X O *D sg13g2_buf_16
*CAP
1 *576:A 0.000106156
2 *388:A 9.55281e-05
3 *364:X 0
4 *52:29 0.000509939
5 *52:17 0.00113076
6 *52:13 0.00160395
7 *52:6 0.000164937
8 *576:A *131:20 0
9 *52:13 *94:24 0
10 *52:17 *364:A 0
11 *52:17 *54:35 0
12 *52:17 *131:20 0
13 *52:17 *132:25 0
14 *52:29 *364:A 0
15 *52:29 *131:20 0
16 *52:29 *167:47 0
17 *27:17 *576:A 0
18 *28:17 *52:13 0
*RES
1 *364:X *52:6 40 
2 *52:6 *52:13 21.5862 
3 *52:13 *52:17 8.549 
4 *52:17 *388:A 21.0918 
5 *52:13 *52:29 3.7801 
6 *52:29 *576:A 20.9682 
*END

*D_NET *53 0.00612098
*CONN
*I *408:A I *D sg13g2_buf_16
*I *389:A I *D sg13g2_buf_16
*I *365:X O *D sg13g2_buf_16
*CAP
1 *408:A 0.000150618
2 *389:A 0.000192994
3 *365:X 9.46224e-05
4 *53:58 0.002396
5 *53:37 0.00224538
6 *53:19 0.000569871
7 *53:6 0.000471499
8 *389:A *489:A 0
9 *389:A *169:41 0
10 *389:A *180:24 0
11 *53:6 *54:35 0
12 *53:6 *132:25 0
13 *53:19 *56:37 0
14 *53:19 *169:41 0
15 *53:19 *169:49 0
16 *53:19 *180:24 0
17 *53:58 *390:A 0
18 *53:58 *54:6 0
19 *53:58 *54:35 0
20 *53:58 *54:57 0
21 *53:58 *55:15 0
22 *53:58 *95:8 0
23 *53:58 *138:6 0
24 *53:58 *166:16 0
25 *53:58 *167:47 0
26 *53:58 *177:20 0
*RES
1 *365:X *53:6 20.8858 
2 *53:6 *53:19 43.0844 
3 *53:19 *389:A 21.4123 
4 *365:X *53:37 40 
5 *53:37 *53:58 40.7278 
6 *53:58 *408:A 21.5656 
*END

*D_NET *54 0.00390039
*CONN
*I *391:A I *D sg13g2_buf_16
*I *409:A I *D sg13g2_buf_16
*I *366:X O *D sg13g2_buf_16
*CAP
1 *391:A 9.71007e-05
2 *409:A 0.000164562
3 *366:X 0
4 *54:57 0.000466216
5 *54:48 0.000369116
6 *54:35 0.00140793
7 *54:6 0.00131942
8 *54:4 7.60513e-05
9 *391:A *55:15 0
10 *391:A *132:25 0
11 *409:A *586:A 0
12 *54:35 *438:A 0
13 *54:35 *477:A 0
14 *54:35 *489:A 0
15 *54:35 *586:A 0
16 *54:35 *56:28 0
17 *54:35 *56:37 0
18 *54:35 *132:41 0
19 *54:35 *134:28 0
20 *54:35 *174:30 0
21 *54:35 *180:24 0
22 *54:57 *390:A 0
23 *54:57 *55:15 0
24 *54:57 *132:25 0
25 *54:57 *151:12 0
26 *52:17 *54:35 0
27 *53:6 *54:35 0
28 *53:58 *54:6 0
29 *53:58 *54:35 0
30 *53:58 *54:57 0
*RES
1 *366:X *54:4 20 
2 *54:4 *54:6 0.7725 
3 *54:6 *54:35 12.8132 
4 *54:35 *409:A 21.5347 
5 *54:4 *54:48 20 
6 *54:48 *54:57 23.2348 
7 *54:57 *391:A 20.9682 
*END

*D_NET *55 0.00218125
*CONN
*I *390:A I *D sg13g2_buf_16
*I *367:X O *D sg13g2_buf_16
*CAP
1 *390:A 0.000104681
2 *367:X 0.000125008
3 *55:15 0.000965616
4 *55:6 0.000985943
5 *55:6 *138:6 0
6 *55:6 *167:47 0
7 *55:15 *364:A 0
8 *55:15 *410:A 0
9 *55:15 *132:25 0
10 *55:15 *138:6 0
11 *55:15 *167:47 0
12 *55:15 *208:27 0
13 *391:A *55:15 0
14 *53:58 *390:A 0
15 *53:58 *55:15 0
16 *54:57 *390:A 0
17 *54:57 *55:15 0
*RES
1 *367:X *55:6 20.9682 
2 *55:6 *55:15 8.2812 
3 *55:15 *390:A 21.0274 
*END

*D_NET *56 0.00388665
*CONN
*I *593:A I *D sg13g2_buf_1
*I *392:A I *D sg13g2_buf_16
*I *411:A I *D sg13g2_buf_16
*I *368:X O *D sg13g2_buf_16
*CAP
1 *593:A 0
2 *392:A 0.000164074
3 *411:A 0.000106246
4 *368:X 0
5 *56:48 0.000369534
6 *56:43 0.000293416
7 *56:41 0.000141411
8 *56:37 0.000551762
9 *56:28 0.000668559
10 *56:15 0.000763821
11 *56:6 0.000657575
12 *56:4 0.000170252
13 *392:A *489:A 0
14 *392:A *166:16 0
15 *411:A *79:6 0
16 *411:A *137:61 0
17 *56:15 *368:A 0
18 *56:15 *79:6 0
19 *56:15 *137:15 0
20 *56:15 *137:35 0
21 *56:15 *137:41 0
22 *56:15 *137:48 0
23 *56:15 *137:61 0
24 *56:28 *166:16 0
25 *56:37 *489:A 0
26 *56:37 *137:6 0
27 *56:37 *137:15 0
28 *56:37 *166:16 0
29 *56:37 *169:41 0
30 *56:41 *573:A 0
31 *56:41 *166:16 0
32 *56:43 *489:A 0
33 *56:43 *573:A 0
34 *56:43 *166:16 0
35 *56:48 *489:A 0
36 *56:48 *166:16 0
37 *535:A *411:A 0
38 *18:19 *392:A 0
39 *53:19 *56:37 0
40 *54:35 *56:28 0
41 *54:35 *56:37 0
*RES
1 *368:X *56:4 20 
2 *56:4 *56:6 20 
3 *56:6 *56:15 24.8102 
4 *56:15 *411:A 20.9682 
5 *56:4 *56:28 1.8849 
6 *56:28 *56:37 4.2854 
7 *56:37 *56:41 0.5974 
8 *56:41 *56:43 0.9682 
9 *56:43 *56:48 2.266 
10 *56:48 *392:A 21.3499 
11 *56:41 *593:A 20 
*END

*D_NET *57 0.000974309
*CONN
*I *371:A I *D sg13g2_buf_16
*I *369:X O *D sg13g2_buf_16
*CAP
1 *371:A 7.56188e-05
2 *369:X 0.000151545
3 *57:13 0.000335609
4 *57:6 0.000411536
5 *371:A *148:11 0
6 *371:A *181:12 0
7 *57:6 *487:A 0
8 *57:6 *148:51 0
9 *57:13 *487:A 0
10 *57:13 *505:A 0
11 *57:13 *148:11 0
12 *57:13 *148:51 0
13 *57:13 *181:12 0
*RES
1 *369:X *57:6 21.4008 
2 *57:6 *57:13 2.5853 
3 *57:13 *371:A 20.8137 
*END

*D_NET *58 0.00176839
*CONN
*I *393:A I *D sg13g2_buf_16
*I *370:X O *D sg13g2_buf_16
*CAP
1 *393:A 0
2 *370:X 0.000220378
3 *58:17 0.000663818
4 *58:8 0.000884196
5 *58:17 *60:44 0
6 *58:17 *81:16 0
7 *58:17 *94:20 0
8 *58:17 *94:24 0
9 *58:17 *137:61 0
10 *58:17 *149:6 0
11 *58:17 *196:12 0
12 *58:17 *211:15 0
13 *58:17 *251:14 0
*RES
1 *370:X *58:8 21.9982 
2 *58:8 *58:17 26.2315 
3 *58:17 *393:A 40 
*END

*D_NET *59 0.00136243
*CONN
*I *585:A I *D sg13g2_buf_1
*I *394:A I *D sg13g2_buf_16
*I *371:X O *D sg13g2_buf_16
*CAP
1 *585:A 0
2 *394:A 0.000149536
3 *371:X 0
4 *59:27 0.000159106
5 *59:22 0.000159106
6 *59:11 0.000334467
7 *59:6 0.000372572
8 *59:4 0.000187641
9 *59:6 *505:TE_B 0
10 *59:6 *172:64 0
11 *59:11 *505:TE_B 0
12 *59:11 *172:64 0
13 *59:27 *97:24 0
14 *59:27 *230:21 0
*RES
1 *371:X *59:4 20 
2 *59:4 *59:6 1.6171 
3 *59:6 *59:11 1.6171 
4 *59:11 *394:A 21.1845 
5 *59:4 *59:22 20 
6 *59:22 *59:27 1.339 
7 *59:27 *585:A 40 
*END

*D_NET *60 0.0043558
*CONN
*I *575:A I *D sg13g2_buf_1
*I *395:A I *D sg13g2_buf_16
*I *372:X O *D sg13g2_buf_16
*CAP
1 *575:A 0
2 *395:A 0.000164265
3 *372:X 0.000100377
4 *60:52 7.42257e-05
5 *60:44 0.000887399
6 *60:31 0.00091355
7 *60:15 0.00119012
8 *60:6 0.00102586
9 *60:15 *372:A 0
10 *60:15 *98:12 0
11 *60:15 *147:10 0
12 *60:15 *147:18 0
13 *60:15 *158:8 0
14 *60:15 *172:64 0
15 *60:15 *222:17 0
16 *60:31 *505:TE_B 0
17 *60:31 *134:12 0
18 *60:31 *211:15 0
19 *60:44 *505:TE_B 0
20 *60:44 *81:22 0
21 *60:44 *211:15 0
22 *60:52 *94:20 0
23 *60:52 *137:61 0
24 *58:17 *60:44 0
*RES
1 *372:X *60:6 40 
2 *60:6 *60:15 29.4142 
3 *60:15 *395:A 21.1845 
4 *372:X *60:31 20.9682 
5 *60:31 *60:44 47.2306 
6 *60:44 *60:52 40.7184 
7 *60:52 *575:A 20 
*END

*D_NET *61 0.00462247
*CONN
*I *414:A I *D sg13g2_buf_16
*I *396:A I *D sg13g2_buf_16
*I *373:X O *D sg13g2_buf_16
*CAP
1 *414:A 0.000154885
2 *396:A 0.000139047
3 *373:X 0
4 *61:43 0.000851301
5 *61:39 0.0013574
6 *61:19 0.000538013
7 *61:11 0.00132089
8 *61:6 0.000260935
9 *396:A *101:16 0
10 *396:A *157:8 0
11 *61:11 *136:18 0
12 *61:11 *158:14 0
13 *61:19 *101:16 0
14 *61:19 *145:24 0
15 *61:19 *146:8 0
16 *61:19 *157:8 0
17 *61:39 *83:10 0
18 *61:39 *136:18 0
19 *61:39 *146:8 0
20 *61:39 *158:14 0
21 *61:39 *159:31 0
22 *61:43 *137:21 0
23 *61:43 *169:29 0
24 *61:43 *195:20 0
25 *61:43 *218:10 0
*RES
1 *373:X *61:6 40 
2 *61:6 *61:11 2.3278 
3 *61:11 *61:19 24.017 
4 *61:19 *396:A 21.5656 
5 *61:11 *61:39 45.3045 
6 *61:39 *61:43 25.2942 
7 *61:43 *414:A 21.1845 
*END

*D_NET *62 0.00428249
*CONN
*I *398:A I *D sg13g2_buf_16
*I *415:A I *D sg13g2_buf_16
*I *374:X O *D sg13g2_buf_16
*CAP
1 *398:A 0
2 *415:A 0
3 *374:X 9.96799e-05
4 *62:55 7.53006e-05
5 *62:47 0.00136776
6 *62:34 0.00144352
7 *62:27 0.00023226
8 *62:21 0.000522747
9 *62:12 0.000441541
10 *62:10 9.96799e-05
11 *62:10 *157:8 0
12 *62:10 *185:28 0
13 *62:21 *103:8 0
14 *62:21 *158:14 0
15 *62:21 *158:35 0
16 *62:21 *251:14 0
17 *62:27 *157:8 0
18 *62:34 *157:8 0
19 *62:47 *155:20 0
20 *62:47 *156:18 0
21 *62:47 *157:8 0
22 *62:47 *161:24 0
23 *62:47 *170:22 0
24 *62:47 *182:40 0
25 *62:47 *182:48 0
26 *62:47 *184:61 0
27 *62:55 *213:8 0
28 *62:55 *230:44 0
29 *343:A *62:55 0
30 *380:A *62:27 0
31 *45:51 *62:47 0
*RES
1 *374:X *62:10 40.8858 
2 *62:10 *62:12 20 
3 *62:12 *62:21 24.8101 
4 *62:21 *62:27 20.7519 
5 *62:27 *415:A 20 
6 *62:27 *62:34 1.1845 
7 *62:34 *62:47 49.8262 
8 *62:47 *62:55 40.7519 
9 *62:55 *398:A 20 
*END

*D_NET *63 0.00207876
*CONN
*I *397:A I *D sg13g2_buf_16
*I *375:X O *D sg13g2_buf_16
*CAP
1 *397:A 0.000144481
2 *375:X 0
3 *63:22 0.000798392
4 *63:17 0.000776745
5 *63:11 0.000240988
6 *63:6 0.000118154
7 *397:A *98:12 0
8 *397:A *172:64 0
9 *63:11 *67:10 0
10 *63:11 *166:48 0
11 *63:17 *67:10 0
12 *63:17 *159:73 0
13 *63:22 *505:TE_B 0
14 *63:22 *159:73 0
15 *63:22 *172:64 0
16 *36:12 *63:11 0
*RES
1 *375:X *63:6 40 
2 *63:6 *63:11 1.0918 
3 *63:11 *63:17 20.9682 
4 *63:17 *63:22 5.5105 
5 *63:22 *397:A 21.1845 
*END

*D_NET *64 0.00358403
*CONN
*I *560:A I *D sg13g2_buf_4
*I *376:X O *D sg13g2_buf_16
*CAP
1 *560:A 0.000661796
2 *376:X 0.000351792
3 *64:8 0.00101359
4 *560:A *167:10 0
5 *64:8 *445:A 0
6 *64:8 *74:16 0
7 *64:8 *209:19 0
8 *377:A *64:8 0
9 *34:16 *560:A 0.00155686
10 *41:15 *64:8 0
*RES
1 *376:X *64:8 43.3475 
2 *64:8 *560:A 47.5061 
*END

*D_NET *65 0.00134775
*CONN
*I *584:A I *D sg13g2_buf_8
*I *445:A I *D sg13g2_einvn_8
*I *377:X O *D sg13g2_buf_16
*CAP
1 *584:A 0
2 *445:A 0.000171755
3 *377:X 0.000673876
4 *65:20 0.000502122
5 *445:A *227:17 0
6 *65:20 *74:16 0
7 *65:20 *209:19 0
8 *65:20 *231:19 0
9 *64:8 *445:A 0
*RES
1 *377:X *445:A 41.6171 
2 *377:X *65:20 44.7998 
3 *65:20 *584:A 40 
*END

*D_NET *66 0.00596509
*CONN
*I *564:A I *D sg13g2_inv_4
*I *378:X O *D sg13g2_buf_16
*CAP
1 *564:A 0
2 *378:X 0.000368079
3 *66:22 0.00100212
4 *66:16 0.00209978
5 *66:8 0.00146574
6 *66:8 *92:8 0
7 *66:8 *92:21 0
8 *66:8 *122:25 0
9 *66:8 *123:47 0
10 *66:16 *468:TE_B 0.000306754
11 *66:16 *123:25 0
12 *66:16 *166:101 0.000143673
13 *66:16 *220:10 0
14 *66:16 *249:10 0.000241604
15 *66:22 *73:10 0
16 *66:22 *125:20 0
17 *66:22 *242:82 0
18 *66:22 *249:10 0
19 *378:A *66:16 0
20 *34:14 *66:16 0.000337335
21 *35:50 *66:16 0
22 *35:56 *66:16 0
23 *43:6 *66:16 0
24 *43:11 *66:16 0
*RES
1 *378:X *66:8 43.3166 
2 *66:8 *66:16 30.2897 
3 *66:16 *66:22 49.2494 
4 *66:22 *564:A 20 
*END

*D_NET *67 0.00413213
*CONN
*I *561:A I *D sg13g2_buf_4
*I *379:X O *D sg13g2_buf_16
*CAP
1 *561:A 0.000840018
2 *379:X 0.00040881
3 *67:16 0.00124926
4 *67:10 0.000818056
5 *561:A *200:8 0.000287256
6 *561:A *203:8 0
7 *561:A *214:26 0
8 *561:A *244:20 0
9 *67:10 *505:TE_B 0
10 *67:10 *159:73 0
11 *67:16 *351:A 4.77425e-05
12 *67:16 *597:TE_B 0.000208035
13 *67:16 *159:73 0
14 *67:16 *166:48 0.000272949
15 *36:12 *67:10 0
16 *37:27 *561:A 0
17 *63:11 *67:10 0
18 *63:17 *67:10 0
*RES
1 *379:X *67:10 42.6863 
2 *67:10 *67:16 43.7801 
3 *67:16 *561:A 48.1061 
*END

*D_NET *68 0.0110804
*CONN
*I *453:A I *D sg13g2_einvn_4
*I *447:A I *D sg13g2_buf_16
*I *583:A I *D sg13g2_buf_1
*I *380:X O *D sg13g2_buf_16
*CAP
1 *453:A 0.000143075
2 *447:A 0
3 *583:A 0.000121499
4 *380:X 0
5 *68:23 0.00190045
6 *68:17 0.00252262
7 *68:4 0.000600602
8 *583:A *430:A 0
9 *583:A *170:26 0
10 *583:A *251:8 0
11 *68:17 *170:26 0
12 *68:17 *172:32 0.00040286
13 *68:17 *182:30 0.000660619
14 *68:17 *251:8 0
15 *68:23 *559:A 0.000888455
16 *68:23 *89:16 0.000726928
17 *68:23 *171:8 0
18 *68:23 *172:8 0
19 *68:23 *182:30 0
20 *68:23 *188:8 0.000531613
21 *68:23 *218:34 0
22 *68:23 *224:23 0
23 *345:A *68:17 0.000272885
24 *345:A *68:23 1.54008e-05
25 *8:25 *68:23 0
26 *20:29 *583:A 0
27 *25:11 *68:23 0
28 *32:15 *453:A 0.000575005
29 *32:15 *68:23 0.000125058
30 *33:13 *68:23 0.000793065
31 *37:35 *68:17 1.54008e-05
32 *37:35 *68:23 6.4711e-05
33 *39:28 *453:A 0.000595435
34 *39:28 *68:23 0.000124748
*RES
1 *380:X *68:4 20 
2 *68:4 *583:A 21.1954 
3 *68:4 *68:17 25.5105 
4 *68:17 *68:23 40.1674 
5 *68:23 *447:A 20 
6 *68:17 *453:A 42.8222 
*END

*D_NET *69 0.00279507
*CONN
*I *562:A I *D sg13g2_inv_4
*I *381:X O *D sg13g2_buf_16
*CAP
1 *562:A 0.000570501
2 *381:X 0.000261491
3 *69:8 0.000831992
4 *562:A *597:A 0.000274182
5 *562:A *199:43 0
6 *69:8 *113:43 0
7 *69:8 *192:16 0
8 *39:75 *562:A 0.000856906
*RES
1 *381:X *69:8 42.575 
2 *69:8 *562:A 45.9431 
*END

*D_NET *70 0.00303753
*CONN
*I *455:A I *D sg13g2_buf_16
*I *591:A I *D sg13g2_buf_1
*I *382:X O *D sg13g2_buf_16
*CAP
1 *455:A 0.000320368
2 *591:A 0
3 *382:X 0.00107187
4 *70:14 0.00139223
5 *455:A *454:A 0
6 *455:A *456:Z 7.09536e-05
7 *455:A *458:TE_B 0.000182106
8 *70:14 *357:A 0
9 *70:14 *454:A 0
10 *70:14 *598:Z 0
11 *70:14 *110:6 0
12 *70:14 *113:27 0
13 *70:14 *185:47 0
14 *70:14 *242:174 0
*RES
1 *382:X *70:14 30.5266 
2 *70:14 *591:A 20 
3 *70:14 *455:A 23.4979 
*END

*D_NET *71 0.00304638
*CONN
*I *467:A I *D sg13g2_einvn_8
*I *468:A I *D sg13g2_einvn_8
*I *383:X O *D sg13g2_buf_16
*CAP
1 *467:A 0
2 *468:A 0
3 *383:X 0.000186706
4 *71:10 0.0012735
5 *71:6 0.00146021
6 *71:6 *416:A 0
7 *71:6 *104:16 0
8 *71:10 *122:14 0.000125963
9 *71:10 *122:25 0
10 *71:10 *123:13 0
11 *71:10 *123:47 0
12 *48:21 *71:10 0
*RES
1 *383:X *71:6 21.4323 
2 *71:6 *71:10 30.7326 
3 *71:10 *468:A 40 
4 *71:6 *467:A 20 
*END

*D_NET *72 0.00181183
*CONN
*I *565:A I *D sg13g2_buf_4
*I *384:X O *D sg13g2_buf_16
*CAP
1 *565:A 0
2 *384:X 0.000753454
3 *72:10 0.000753454
4 *72:10 *74:16 0.000304926
5 *72:10 *125:20 0
6 *72:10 *192:16 0
*RES
1 *384:X *72:10 47.0967 
2 *72:10 *565:A 40 
*END

*D_NET *73 0.0124082
*CONN
*I *475:A I *D sg13g2_einvn_8
*I *474:A I *D sg13g2_einvn_8
*I *385:X O *D sg13g2_buf_16
*CAP
1 *475:A 0
2 *474:A 0
3 *385:X 0.000523718
4 *73:33 0.00212451
5 *73:22 0.000322106
6 *73:14 0.00246489
7 *73:10 0.00479102
8 *73:10 *470:TE_B 0.000112648
9 *73:10 *125:20 0
10 *73:10 *166:86 0.000112315
11 *73:10 *215:8 0
12 *73:22 *124:12 0
13 *73:33 *472:A 0.00115004
14 *73:33 *567:A 0
15 *73:33 *568:A 0
16 *73:33 *92:27 0
17 *73:33 *93:12 0
18 *73:33 *125:20 0
19 *73:33 *126:6 0
20 *73:33 *168:12 0
21 *73:33 *215:8 0
22 *73:33 *239:8 0.000176967
23 *6:11 *73:33 0
24 *7:13 *73:33 0.000629944
25 *16:9 *73:33 0
26 *49:33 *73:14 0
27 *49:43 *73:22 0
28 *66:22 *73:10 0
*RES
1 *385:X *73:10 45.3045 
2 *73:10 *73:14 31.9995 
3 *73:14 *73:22 43.0488 
4 *73:22 *474:A 20 
5 *73:10 *73:33 39.9915 
6 *73:33 *475:A 20 
*END

*D_NET *74 0.00594349
*CONN
*I *566:A I *D sg13g2_inv_4
*I *386:X O *D sg13g2_buf_16
*CAP
1 *566:A 0
2 *386:X 0.000128461
3 *74:16 0.00246192
4 *74:10 0.00259038
5 *74:10 *93:8 0
6 *74:10 *179:8 0
7 *74:16 *595:Z 0
8 *74:16 *166:101 0.000442395
9 *74:16 *171:20 0
10 *74:16 *179:14 0
11 *74:16 *183:22 0
12 *74:16 *192:16 0
13 *74:16 *193:10 1.54008e-05
14 *74:16 *231:19 0
15 *74:16 *231:31 0
16 *74:16 *242:82 0
17 *34:8 *74:16 0
18 *49:13 *74:16 0
19 *64:8 *74:16 0
20 *65:20 *74:16 0
21 *72:10 *74:16 0.000304926
*RES
1 *386:X *74:10 41.3493 
2 *74:10 *74:16 42.8207 
3 *74:16 *566:A 20 
*END

*D_NET *75 0.00978303
*CONN
*I *482:A I *D sg13g2_einvn_8
*I *481:A I *D sg13g2_einvn_8
*I *387:X O *D sg13g2_buf_16
*CAP
1 *482:A 0
2 *481:A 0.00140139
3 *387:X 0.000110567
4 *75:31 0.000450034
5 *75:12 0.00204368
6 *75:8 0.000302823
7 *481:A *166:16 0.00185786
8 *481:A *170:8 0.000199013
9 *481:A *170:22 0.000304903
10 *481:A *250:12 0
11 *75:8 *126:10 0.000284339
12 *75:12 *96:10 0
13 *75:12 *170:8 1.54008e-05
14 *75:12 *250:12 0
15 *75:31 *96:12 0.000810429
16 *75:31 *126:10 0
17 *75:31 *150:10 0
18 *75:31 *183:37 0
19 *75:31 *239:16 0
20 *535:A *481:A 0.00200259
*RES
1 *387:X *75:8 41.339 
2 *75:8 *75:12 21.6171 
3 *75:12 *481:A 36.5624 
4 *75:12 *75:31 44.841 
5 *75:31 *482:A 20 
*END

*D_NET *76 0.00164943
*CONN
*I *365:A I *D sg13g2_buf_16
*I *592:A I *D sg13g2_buf_1
*I *388:X O *D sg13g2_buf_16
*CAP
1 *365:A 0
2 *592:A 0.000378063
3 *388:X 0.00016355
4 *76:6 0.000541613
5 *592:A *504:A 0
6 *592:A *94:28 0.000566208
7 *76:6 *94:28 0
8 *17:9 *592:A 0
9 *17:9 *76:6 0
*RES
1 *388:X *76:6 21.6171 
2 *76:6 *592:A 24.3775 
3 *76:6 *365:A 20 
*END

*D_NET *77 0.00223126
*CONN
*I *586:A I *D sg13g2_buf_1
*I *484:A I *D sg13g2_buf_16
*I *389:X O *D sg13g2_buf_16
*CAP
1 *586:A 0.000255642
2 *484:A 0
3 *389:X 0.000859986
4 *77:12 0.000255642
5 *77:10 0.000859986
6 *586:A *489:A 0
7 *586:A *174:30 0
8 *77:10 *477:Z 0
9 *77:10 *479:Z 0
10 *77:10 *82:36 0
11 *77:10 *97:16 0
12 *77:10 *97:24 0
13 *77:10 *132:41 0
14 *77:10 *144:20 0
15 *409:A *586:A 0
16 *54:35 *586:A 0
*RES
1 *389:X *77:10 47.5911 
2 *77:10 *77:12 20 
3 *77:12 *484:A 20 
4 *77:12 *586:A 22.3999 
*END

*D_NET *78 0.00220618
*CONN
*I *568:A I *D sg13g2_inv_4
*I *390:X O *D sg13g2_buf_16
*CAP
1 *568:A 0.000788491
2 *390:X 0.000788491
3 *568:A *94:28 0.000144886
4 *568:A *96:20 0
5 *568:A *126:6 0.000242098
6 *568:A *131:20 0
7 *568:A *229:6 0.000242213
8 *17:9 *568:A 0
9 *73:33 *568:A 0
*RES
1 *390:X *568:A 48.7962 
*END

*D_NET *79 0.00747788
*CONN
*I *581:A I *D sg13g2_buf_1
*I *492:A I *D sg13g2_buf_16
*I *391:X O *D sg13g2_buf_16
*CAP
1 *581:A 0
2 *492:A 0
3 *391:X 0.00123144
4 *79:16 0.00141598
5 *79:10 0.00155999
6 *79:6 0.00137545
7 *79:6 *135:10 0
8 *79:6 *143:43 0
9 *79:6 *181:12 0
10 *79:10 *97:24 0
11 *79:10 *143:21 0
12 *79:10 *144:20 0
13 *79:16 *139:14 0
14 *79:16 *143:21 0
15 *79:16 *144:20 0
16 *79:16 *146:8 0
17 *79:16 *153:12 0.000447545
18 *79:16 *181:12 0
19 *79:16 *198:12 0.00103472
20 *411:A *79:6 0
21 *535:A *79:6 0
22 *18:19 *79:6 0.000412754
23 *56:15 *79:6 0
*RES
1 *391:X *79:6 31.3506 
2 *79:6 *79:10 21.8334 
3 *79:10 *79:16 35.7487 
4 *79:16 *492:A 20 
5 *79:10 *581:A 40 
*END

*D_NET *80 0.00413507
*CONN
*I *589:A I *D sg13g2_buf_1
*I *500:A I *D sg13g2_buf_16
*I *392:X O *D sg13g2_buf_16
*CAP
1 *589:A 0.000168651
2 *500:A 0
3 *392:X 6.45851e-05
4 *80:14 0.000873508
5 *80:6 0.00110674
6 *589:A *505:A 1.54008e-05
7 *80:14 *144:20 0.00189075
8 *80:14 *147:18 1.54285e-05
9 *80:14 *153:8 0
10 *80:14 *181:12 0
*RES
1 *392:X *80:6 20.5356 
2 *80:6 *80:14 49.9395 
3 *80:14 *500:A 20 
4 *80:6 *589:A 21.715 
*END

*D_NET *81 0.0067621
*CONN
*I *570:A I *D sg13g2_inv_4
*I *393:X O *D sg13g2_buf_16
*CAP
1 *570:A 0
2 *393:X 0.000710571
3 *81:22 0.00172704
4 *81:16 0.00243761
5 *81:16 *94:24 0
6 *81:22 *375:A 0
7 *81:22 *413:A 0
8 *81:22 *480:A 0
9 *81:22 *505:TE_B 0.00121
10 *81:22 *134:12 0
11 *81:22 *171:20 0
12 *81:22 *183:22 0.000434019
13 *81:22 *211:15 0
14 *28:17 *81:16 0.000130212
15 *28:17 *81:22 0
16 *37:12 *81:22 0.00011265
17 *58:17 *81:16 0
18 *60:44 *81:22 0
*RES
1 *393:X *81:16 46.6023 
2 *81:16 *81:22 36.2122 
3 *81:22 *570:A 20 
*END

*D_NET *82 0.0103162
*CONN
*I *582:A I *D sg13g2_buf_1
*I *514:A I *D sg13g2_einvn_4
*I *508:A I *D sg13g2_buf_16
*I *394:X O *D sg13g2_buf_16
*CAP
1 *582:A 0
2 *514:A 6.52623e-05
3 *508:A 0.000183814
4 *394:X 0
5 *82:36 0.00185225
6 *82:8 0.000896648
7 *82:6 0.00249982
8 *508:A *144:20 0.000288087
9 *514:A *153:8 4.77425e-05
10 *82:8 *144:20 0.0018373
11 *82:8 *229:10 0
12 *82:36 *477:TE_B 0
13 *82:36 *94:28 0
14 *82:36 *144:20 0.00220112
15 *82:36 *166:8 0.00044418
16 *82:36 *229:6 0
17 *82:36 *229:10 0
18 *6:11 *82:36 0
19 *6:17 *82:36 0
20 *30:9 *508:A 0
21 *30:9 *82:8 0
22 *77:10 *82:36 0
*RES
1 *394:X *82:6 40 
2 *82:6 *82:8 8.5078 
3 *82:8 *508:A 42.0909 
4 *82:8 *514:A 40.7519 
5 *82:6 *82:36 40.8266 
6 *82:36 *582:A 20 
*END

*D_NET *83 0.0100489
*CONN
*I *373:A I *D sg13g2_buf_16
*I *426:A I *D sg13g2_inv_1
*I *395:X O *D sg13g2_buf_16
*CAP
1 *373:A 0
2 *426:A 0.000190208
3 *395:X 0.000701947
4 *83:18 0.00362797
5 *83:10 0.00413971
6 *83:10 *98:20 0.000273694
7 *83:10 *145:32 0
8 *83:10 *146:8 0
9 *83:10 *154:38 0
10 *83:10 *159:31 0
11 *83:18 *605:A 0
12 *83:18 *98:20 0
13 *83:18 *145:24 0.00111532
14 *83:18 *154:38 0
15 *83:18 *156:18 0
16 *83:18 *159:31 0
17 *83:18 *159:39 0
18 *83:18 *159:45 0
19 *83:18 *159:52 0
20 *83:18 *159:73 0
21 *83:18 *182:48 0
22 *83:18 *182:75 0
23 *83:18 *255:16 0
24 *61:39 *83:10 0
*RES
1 *395:X *83:10 25.7504 
2 *83:10 *83:18 48.0263 
3 *83:18 *426:A 41.6171 
4 *83:10 *373:A 20 
*END

*D_NET *84 0.00190121
*CONN
*I *588:A I *D sg13g2_buf_1
*I *516:A I *D sg13g2_buf_16
*I *396:X O *D sg13g2_buf_16
*CAP
1 *588:A 0.000158157
2 *516:A 0.000445127
3 *396:X 0.000234741
4 *84:6 0.000838025
5 *516:A *185:28 0
6 *516:A *225:16 0
7 *516:A *230:44 0
8 *588:A *606:A 0
9 *588:A *185:28 0.000225165
10 *84:6 *606:A 0
11 *84:6 *230:44 0
*RES
1 *396:X *84:6 22.4823 
2 *84:6 *516:A 24.1921 
3 *84:6 *588:A 22.5956 
*END

*D_NET *85 0.00391933
*CONN
*I *572:A I *D sg13g2_inv_4
*I *397:X O *D sg13g2_buf_16
*CAP
1 *572:A 0
2 *397:X 0.00157483
3 *85:8 0.00157483
4 *85:8 *351:B 8.00842e-05
5 *85:8 *351:A 3.23417e-05
6 *85:8 *597:TE_B 0.000208035
7 *85:8 *605:A 0
8 *85:8 *605:TE_B 0
9 *85:8 *159:45 0
10 *85:8 *159:73 0
11 *85:8 *166:48 0.00030529
12 *85:8 *167:27 0.00014391
*RES
1 *397:X *85:8 34.1419 
2 *85:8 *572:A 20 
*END

*D_NET *86 0.00682609
*CONN
*I *528:A I *D sg13g2_einvn_8
*I *529:A I *D sg13g2_einvn_8
*I *398:X O *D sg13g2_buf_16
*CAP
1 *528:A 0
2 *529:A 0.00120594
3 *398:X 0.000341059
4 *86:16 0.00161517
5 *86:8 0.000750291
6 *529:A *511:Z 0.00137521
7 *529:A *517:TE_B 0
8 *529:A *526:A 0
9 *529:A *530:A 0.000226642
10 *529:A *103:33 0.000337276
11 *529:A *112:19 0
12 *529:A *161:32 0
13 *529:A *163:6 0.000339726
14 *529:A *172:24 0
15 *529:A *182:30 0
16 *529:A *184:30 0.000436696
17 *529:A *230:44 0
18 *86:8 *218:34 0
19 *86:16 *111:8 0.000198079
20 *86:16 *172:24 0
21 *86:16 *230:44 0
22 *37:27 *86:8 0
23 *39:28 *86:8 0
*RES
1 *398:X *86:8 42.575 
2 *86:8 *86:16 22.5386 
3 *86:16 *529:A 33.7196 
4 *86:16 *528:A 20 
*END

*D_NET *87 0.00523352
*CONN
*I *422:A I *D sg13g2_inv_1
*I *353:A I *D sg13g2_buf_16
*I *399:X O *D sg13g2_buf_16
*CAP
1 *422:A 0
2 *353:A 0.000201712
3 *399:X 0
4 *87:17 0.000978708
5 *87:4 0.00118042
6 *353:A *354:A 0
7 *353:A *106:55 0
8 *87:17 *191:14 0
9 *87:17 *234:43 0.00044838
10 *609:A *353:A 0
11 *21:9 *87:17 0.0024243
*RES
1 *399:X *87:4 20 
2 *87:4 *353:A 22.0497 
3 *87:4 *87:17 33.7711 
4 *87:17 *422:A 40 
*END

*D_NET *88 0.00111053
*CONN
*I *442:A I *D sg13g2_einvn_8
*I *580:A I *D sg13g2_buf_1
*I *400:X O *D sg13g2_buf_16
*CAP
1 *442:A 0.000126925
2 *580:A 0
3 *400:X 0.00017724
4 *88:8 5.03144e-05
5 *442:A *442:Z 0.000177212
6 *88:8 *124:12 0.000289417
7 *10:11 *442:A 0
8 *10:11 *88:8 0.000289417
*RES
1 *400:X *88:8 41.339 
2 *88:8 *580:A 40 
3 *400:X *442:A 41.4008 
*END

*D_NET *89 0.00761396
*CONN
*I *357:A I *D sg13g2_buf_16
*I *429:A I *D sg13g2_inv_1
*I *401:X O *D sg13g2_buf_16
*CAP
1 *357:A 0.00048431
2 *429:A 0
3 *401:X 0.000733213
4 *89:16 0.0014741
5 *89:8 0.001723
6 *357:A *110:6 0.000564703
7 *89:8 *113:19 0
8 *89:8 *183:12 0
9 *89:8 *224:23 0
10 *89:8 *246:18 0
11 *89:16 *456:TE_B 0.000339726
12 *89:16 *559:A 0
13 *89:16 *115:8 0.00156798
14 *89:16 *178:12 0
15 *89:16 *224:23 0
16 *577:A *357:A 0
17 *45:51 *357:A 0
18 *68:23 *89:16 0.000726928
19 *70:14 *357:A 0
*RES
1 *401:X *89:8 42.3278 
2 *89:8 *89:16 36.1916 
3 *89:16 *429:A 20 
4 *401:X *357:A 45.2221 
*END

*D_NET *90 0.00286623
*CONN
*I *452:A I *D sg13g2_einvn_8
*I *402:X O *D sg13g2_buf_16
*CAP
1 *452:A 0.000235857
2 *402:X 0.000527898
3 *90:8 0.000763755
4 *452:A *110:6 0
5 *452:A *230:44 0
6 *90:8 *188:27 0.00133872
7 *90:8 *224:29 0
8 *90:8 *242:174 0
9 *34:30 *90:8 0
*RES
1 *402:X *90:8 46.283 
2 *90:8 *452:A 41.8334 
*END

*D_NET *91 0.0031395
*CONN
*I *431:A I *D sg13g2_inv_4
*I *461:A I *D sg13g2_einvn_4
*I *403:X O *D sg13g2_buf_16
*CAP
1 *431:A 0
2 *461:A 0.000603348
3 *403:X 0
4 *91:27 0.000665096
5 *91:4 0.00126844
6 *461:A *458:Z 7.89079e-05
7 *461:A *462:A 0
8 *461:A *469:A 0
9 *461:A *125:10 0.000299954
10 *461:A *191:8 0.000144842
11 *461:A *210:20 7.89102e-05
12 *91:27 *458:TE_B 0
13 *91:27 *121:10 0
14 *91:27 *125:16 0
15 *91:27 *205:8 0
16 *91:27 *207:10 0
17 *91:27 *230:44 0
18 *46:41 *461:A 0
19 *46:41 *91:27 0
*RES
1 *403:X *91:4 20 
2 *91:4 *461:A 25.9593 
3 *91:4 *91:27 46.2933 
4 *91:27 *431:A 20 
*END

*D_NET *92 0.00871459
*CONN
*I *465:A I *D sg13g2_einvn_8
*I *432:A I *D sg13g2_inv_8
*I *404:X O *D sg13g2_buf_16
*CAP
1 *465:A 0
2 *432:A 0
3 *404:X 0
4 *92:27 0.000141896
5 *92:21 0.00165189
6 *92:8 0.00252834
7 *92:6 0.00101834
8 *92:8 *104:18 0.00050279
9 *92:8 *105:17 0
10 *92:8 *234:14 0
11 *92:21 *93:8 0.00175976
12 *92:21 *122:14 0.00111156
13 *92:21 *122:25 0
14 *92:21 *124:12 0
15 *92:27 *125:20 0
16 *40:11 *92:8 0
17 *40:17 *92:8 0
18 *42:17 *92:8 0
19 *42:35 *92:8 0
20 *51:15 *92:21 0
21 *66:8 *92:8 0
22 *66:8 *92:21 0
23 *73:33 *92:27 0
*RES
1 *404:X *92:6 40 
2 *92:6 *92:8 10.9798 
3 *92:8 *432:A 40 
4 *92:8 *92:21 36.8302 
5 *92:21 *92:27 41.0918 
6 *92:27 *465:A 20 
*END

*D_NET *93 0.00760098
*CONN
*I *472:A I *D sg13g2_einvn_8
*I *579:A I *D sg13g2_buf_1
*I *405:X O *D sg13g2_buf_16
*CAP
1 *472:A 0.000833144
2 *579:A 0
3 *405:X 0.00133096
4 *93:12 0.000923331
5 *93:8 0.00142114
6 *472:A *168:12 0
7 *93:8 *474:TE_B 0
8 *93:8 *123:55 0
9 *93:8 *168:12 0
10 *93:8 *179:8 0
11 *93:12 *215:8 0.00018261
12 *49:8 *93:8 0
13 *73:33 *472:A 0.00115004
14 *73:33 *93:12 0
15 *74:10 *93:8 0
16 *92:21 *93:8 0.00175976
*RES
1 *405:X *93:8 34.8217 
2 *93:8 *93:12 21.339 
3 *93:12 *579:A 40 
4 *93:12 *472:A 48.5181 
*END

*D_NET *94 0.00990449
*CONN
*I *479:A I *D sg13g2_einvn_8
*I *435:A I *D sg13g2_inv_8
*I *406:X O *D sg13g2_buf_16
*CAP
1 *479:A 0
2 *435:A 0.00155425
3 *406:X 0.000317404
4 *94:28 0.000935209
5 *94:24 0.00234057
6 *94:20 0.00264221
7 *435:A *601:Z 0
8 *435:A *602:Z 0
9 *435:A *171:20 0
10 *94:20 *601:Z 0
11 *94:20 *602:Z 0
12 *94:20 *604:Z 0
13 *94:20 *137:61 0
14 *94:20 *148:51 0
15 *94:24 *136:12 0
16 *94:24 *171:33 0
17 *94:24 *211:15 0
18 *94:28 *477:TE_B 0
19 *94:28 *504:A 0
20 *94:28 *218:8 0
21 *94:28 *229:6 0.00140376
22 *568:A *94:28 0.000144886
23 *592:A *94:28 0.000566208
24 *17:9 *94:28 0
25 *28:17 *94:24 0
26 *52:13 *94:24 0
27 *58:17 *94:20 0
28 *58:17 *94:24 0
29 *60:52 *94:20 0
30 *76:6 *94:28 0
31 *81:16 *94:24 0
32 *82:36 *94:28 0
*RES
1 *406:X *435:A 43.1724 
2 *435:A *94:20 31.1343 
3 *94:20 *94:24 33.4518 
4 *94:24 *94:28 30.7017 
5 *94:28 *479:A 20 
*END

*D_NET *95 0.00618685
*CONN
*I *567:A I *D sg13g2_buf_4
*I *407:X O *D sg13g2_buf_16
*CAP
1 *567:A 0.000543111
2 *407:X 0.000605638
3 *95:8 0.00114875
4 *567:A *437:A 0.000174496
5 *567:A *96:12 0.00144744
6 *567:A *126:6 0
7 *567:A *168:12 1.54008e-05
8 *567:A *168:18 8.00842e-05
9 *567:A *239:8 0
10 *567:A *239:16 0.00160858
11 *95:8 *502:A 0.00017625
12 *95:8 *166:16 0
13 *31:19 *95:8 8.00842e-05
14 *35:56 *95:8 0.000307012
15 *53:58 *95:8 0
16 *73:33 *567:A 0
*RES
1 *407:X *95:8 45.5105 
2 *95:8 *567:A 49.3524 
*END

*D_NET *96 0.00765119
*CONN
*I *437:A I *D sg13g2_inv_4
*I *490:A I *D sg13g2_einvn_4
*I *408:X O *D sg13g2_buf_16
*CAP
1 *437:A 0.000122424
2 *490:A 0
3 *408:X 0.000505452
4 *96:20 0.00113129
5 *96:12 0.00175846
6 *96:10 0.00101019
7 *96:10 *600:TE_B 0
8 *96:10 *166:16 0
9 *96:10 *170:8 4.77699e-05
10 *96:10 *184:8 0.00011101
11 *96:12 *126:10 0
12 *96:12 *177:16 0
13 *96:12 *239:16 0
14 *96:20 *126:6 0.000532228
15 *96:20 *131:20 0
16 *96:20 *212:17 0
17 *567:A *437:A 0.000174496
18 *567:A *96:12 0.00144744
19 *568:A *96:20 0
20 *75:12 *96:10 0
21 *75:31 *96:12 0.000810429
*RES
1 *408:X *96:10 44.3775 
2 *96:10 *96:12 7.7662 
3 *96:12 *96:20 30.2897 
4 *96:20 *490:A 20 
5 *96:12 *437:A 41.4111 
*END

*D_NET *97 0.0107945
*CONN
*I *438:A I *D sg13g2_inv_4
*I *498:A I *D sg13g2_einvn_4
*I *409:X O *D sg13g2_buf_16
*CAP
1 *438:A 3.0092e-05
2 *498:A 0.000192232
3 *409:X 0.000981619
4 *97:24 0.00325602
5 *97:16 0.0040755
6 *438:A *489:A 4.76973e-05
7 *498:A *184:44 0.00024188
8 *498:A *197:14 8.95704e-05
9 *97:16 *208:19 0
10 *97:16 *229:6 0
11 *97:24 *139:14 0
12 *97:24 *143:21 0
13 *97:24 *148:21 0
14 *97:24 *153:25 0
15 *97:24 *174:14 0.00187992
16 *97:24 *208:19 0
17 *97:24 *230:21 0
18 *17:15 *97:16 0
19 *17:19 *97:24 0
20 *54:35 *438:A 0
21 *59:27 *97:24 0
22 *77:10 *97:16 0
23 *77:10 *97:24 0
24 *79:10 *97:24 0
*RES
1 *409:X *97:16 49.5378 
2 *97:16 *97:24 49.664 
3 *97:24 *498:A 22.0497 
4 *97:16 *438:A 40.3193 
*END

*D_NET *98 0.00654755
*CONN
*I *569:A I *D sg13g2_buf_4
*I *410:X O *D sg13g2_buf_16
*CAP
1 *569:A 0
2 *410:X 0
3 *98:20 0.000473591
4 *98:12 0.001807
5 *98:6 0.00133341
6 *98:12 *372:A 0
7 *98:12 *159:52 0
8 *98:12 *159:73 0
9 *98:12 *172:64 0
10 *98:12 *196:12 0
11 *98:12 *242:25 0
12 *98:12 *242:36 0
13 *98:12 *251:14 0
14 *98:20 *503:A 0.000340483
15 *98:20 *136:18 0
16 *98:20 *147:10 0
17 *98:20 *147:18 0
18 *98:20 *154:38 0
19 *98:20 *158:14 0
20 *98:20 *159:39 0
21 *397:A *98:12 0
22 *28:17 *98:12 0.00231938
23 *60:15 *98:12 0
24 *83:10 *98:20 0.000273694
25 *83:18 *98:20 0
*RES
1 *410:X *98:6 40 
2 *98:6 *98:12 36.0268 
3 *98:12 *98:20 45.1191 
4 *98:20 *569:A 20 
*END

*D_NET *99 0.00123879
*CONN
*I *424:A I *D sg13g2_inv_4
*I *506:A I *D sg13g2_einvn_4
*I *411:X O *D sg13g2_buf_16
*CAP
1 *424:A 9.08543e-05
2 *506:A 0
3 *411:X 0.000424058
4 *99:8 0.000514912
5 *99:8 *487:A 0
6 *99:8 *136:12 0
7 *99:8 *136:18 0
8 *99:8 *147:10 0.000208968
9 *99:8 *148:51 0
*RES
1 *411:X *99:8 24.1303 
2 *99:8 *506:A 20 
3 *99:8 *424:A 21.0918 
*END

*D_NET *100 0.00324516
*CONN
*I *513:A I *D sg13g2_einvn_8
*I *412:X O *D sg13g2_buf_16
*CAP
1 *513:A 0.000780794
2 *412:X 0.000575755
3 *100:8 0.00135655
4 *513:A *495:A 0
5 *513:A *509:A 0.00053206
6 *513:A *146:8 0
7 *513:A *185:28 0
8 *100:8 *136:18 0
9 *100:8 *140:16 0
10 *100:8 *159:31 0
11 *100:8 *240:8 0
*RES
1 *412:X *100:8 45.2942 
2 *100:8 *513:A 47.5911 
*END

*D_NET *101 0.00270596
*CONN
*I *571:A I *D sg13g2_buf_4
*I *413:X O *D sg13g2_buf_16
*CAP
1 *571:A 0
2 *413:X 0.00034246
3 *101:16 0.00101052
4 *101:8 0.00135298
5 *101:8 *103:8 0
6 *101:8 *172:38 0
7 *101:8 *251:14 0
8 *101:16 *145:24 0
9 *101:16 *157:8 0
10 *101:16 *158:14 0
11 *101:16 *158:22 0
12 *396:A *101:16 0
13 *61:19 *101:16 0
*RES
1 *413:X *101:8 43.3166 
2 *101:8 *101:16 49.3524 
3 *101:16 *571:A 40 
*END

*D_NET *102 0.00460379
*CONN
*I *427:A I *D sg13g2_inv_4
*I *522:A I *D sg13g2_einvn_4
*I *414:X O *D sg13g2_buf_16
*CAP
1 *427:A 0
2 *522:A 0
3 *414:X 0
4 *102:25 0.000748385
5 *102:12 0.000760108
6 *102:4 0.00150849
7 *102:12 *139:14 0
8 *102:12 *147:18 0.000338706
9 *102:12 *158:8 0
10 *102:25 *134:12 0
11 *102:25 *137:21 0
12 *102:25 *148:51 0
13 *17:19 *102:12 0.0012481
*RES
1 *414:X *102:4 20 
2 *102:4 *102:12 48.0546 
3 *102:12 *522:A 20 
4 *102:4 *102:25 46.386 
5 *102:25 *427:A 20 
*END

*D_NET *103 0.00644511
*CONN
*I *578:A I *D sg13g2_buf_1
*I *526:A I *D sg13g2_einvn_8
*I *415:X O *D sg13g2_buf_16
*CAP
1 *578:A 0
2 *526:A 0.00063946
3 *415:X 0.00084282
4 *103:33 0.000704087
5 *103:10 0.00134355
6 *103:8 0.00084282
7 *526:A *517:TE_B 0
8 *526:A *530:A 0.000242098
9 *526:A *112:19 0
10 *526:A *163:6 4.79124e-05
11 *526:A *184:30 0.00040424
12 *526:A *230:44 0
13 *103:8 *112:19 0
14 *103:8 *172:38 2.21831e-05
15 *103:8 *184:22 0.000756896
16 *103:8 *251:14 0
17 *103:33 *112:11 0
18 *103:33 *112:19 0
19 *103:33 *112:45 0
20 *103:33 *161:24 0.000229428
21 *103:33 *184:30 3.23417e-05
22 *529:A *526:A 0
23 *529:A *103:33 0.000337276
24 *62:21 *103:8 0
25 *101:8 *103:8 0
*RES
1 *415:X *103:8 48.0134 
2 *103:8 *103:10 20 
3 *103:10 *526:A 26.2933 
4 *103:10 *103:33 46.386 
5 *103:33 *578:A 20 
*END

*D_NET *104 0.00508688
*CONN
*I *442:Z O *D sg13g2_einvn_8
*I *446:A I *D sg13g2_inv_8
*I *445:Z O *D sg13g2_einvn_8
*CAP
1 *442:Z 0.000444862
2 *446:A 0.000282455
3 *445:Z 0.000621801
4 *104:18 0.000999616
5 *104:16 0.0008941
6 *446:A *440:A 4.77702e-05
7 *446:A *124:12 0
8 *446:A *125:16 0.000714592
9 *446:A *233:14 0
10 *104:16 *355:A 0
11 *104:16 *106:35 0
12 *104:16 *107:17 0
13 *104:16 *123:8 0
14 *104:16 *227:17 0
15 *104:18 *105:17 0
16 *104:18 *125:16 0.000159839
17 *104:18 *227:17 0
18 *442:A *442:Z 0.000177212
19 *532:A *442:Z 0
20 *609:A *104:16 0.00024184
21 *10:11 *442:Z 0
22 *40:17 *446:A 0
23 *40:17 *104:18 0
24 *71:6 *104:16 0
25 *92:8 *104:18 0.00050279
*RES
1 *445:Z *104:16 46.4478 
2 *104:16 *104:18 3.811 
3 *104:18 *446:A 43.6359 
4 *104:18 *442:Z 44.2586 
*END

*D_NET *105 0.00190221
*CONN
*I *352:A I *D sg13g2_buf_16
*I *609:X O *D sg13g2_buf_16
*CAP
1 *352:A 9.66702e-05
2 *609:X 5.93502e-05
3 *105:17 0.000891757
4 *105:8 0.000854437
5 *352:A *106:55 0
6 *105:8 *167:10 0
7 *105:17 *220:14 0
8 *105:17 *227:17 0
9 *404:A *352:A 0
10 *609:A *105:17 0
11 *42:35 *105:17 0
12 *92:8 *105:17 0
13 *104:18 *105:17 0
*RES
1 *609:X *105:8 40.5356 
2 *105:8 *105:17 26.4834 
3 *105:17 *352:A 20.9682 
*END

*D_NET *106 0.00523805
*CONN
*I *354:A I *D sg13g2_buf_16
*I *416:A I *D sg13g2_buf_16
*I *440:Z O *D sg13g2_einvn_8
*I *444:Z O *D sg13g2_einvn_8
*CAP
1 *354:A 9.34834e-05
2 *416:A 0.000100277
3 *440:Z 0
4 *444:Z 0.000105866
5 *106:55 0.000989853
6 *106:39 0.000135846
7 *106:35 0.00199689
8 *106:15 0.00138746
9 *106:6 0.000428377
10 *106:6 *440:A 0
11 *106:6 *233:14 0
12 *106:15 *440:A 0
13 *106:15 *122:25 0
14 *106:15 *233:14 0
15 *106:35 *122:25 0
16 *106:35 *123:13 0
17 *106:35 *220:14 0
18 *106:35 *233:14 0
19 *106:55 *122:25 0
20 *106:55 *220:14 0
21 *352:A *106:55 0
22 *353:A *354:A 0
23 *353:A *106:55 0
24 *14:13 *354:A 0
25 *14:13 *106:55 0
26 *34:16 *106:35 0
27 *41:15 *106:55 0
28 *71:6 *416:A 0
29 *104:16 *106:35 0
*RES
1 *444:Z *106:6 20.9682 
2 *106:6 *106:15 22.8016 
3 *106:15 *440:Z 40 
4 *106:15 *106:35 49.3318 
5 *106:35 *106:39 20.3193 
6 *106:39 *416:A 20.9682 
7 *106:35 *106:55 28.2709 
8 *106:55 *354:A 20.9682 
*END

*D_NET *107 0.00124559
*CONN
*I *355:A I *D sg13g2_buf_16
*I *416:X O *D sg13g2_buf_16
*CAP
1 *355:A 6.23324e-05
2 *416:X 0.000121688
3 *107:17 0.00050111
4 *107:8 0.000560465
5 *107:17 *123:13 0
6 *34:16 *107:17 0
7 *104:16 *355:A 0
8 *104:16 *107:17 0
*RES
1 *416:X *107:8 40.9682 
2 *107:8 *107:17 23.9449 
3 *107:17 *355:A 20.6901 
*END

*D_NET *108 0.00245948
*CONN
*I *440:TE_B I *D sg13g2_einvn_8
*I *441:Y O *D sg13g2_inv_1
*CAP
1 *440:TE_B 0.000800821
2 *441:Y 0.000800821
3 *440:TE_B *433:A 0
4 *440:TE_B *458:Z 0
5 *440:TE_B *469:A 0
6 *440:TE_B *173:6 0.0001943
7 *440:TE_B *173:14 0.000663536
8 *440:TE_B *191:8 0
9 *440:TE_B *210:20 0
10 *440:TE_B *210:37 0
11 *440:TE_B *233:14 0
12 *538:A *440:TE_B 0
*RES
1 *441:Y *440:TE_B 48.3018 
*END

*D_NET *109 0.000387829
*CONN
*I *442:TE_B I *D sg13g2_einvn_8
*I *443:Y O *D sg13g2_inv_1
*CAP
1 *442:TE_B 0.000193915
2 *443:Y 0.000193915
3 *442:TE_B *440:A 0
4 *442:TE_B *233:8 0
*RES
1 *443:Y *442:TE_B 41.9982 
*END

*D_NET *110 0.00408576
*CONN
*I *450:A I *D sg13g2_einvn_8
*I *447:X O *D sg13g2_buf_16
*CAP
1 *450:A 0
2 *447:X 0.00168036
3 *110:6 0.00168036
4 *110:6 *456:Z 0
5 *110:6 *608:A 8.02267e-05
6 *110:6 *228:10 8.01118e-05
7 *110:6 *230:44 0
8 *357:A *110:6 0.000564703
9 *452:A *110:6 0
10 *70:14 *110:6 0
*RES
1 *447:X *110:6 35.1787 
2 *110:6 *450:A 20 
*END

*D_NET *111 0.00733569
*CONN
*I *454:A I *D sg13g2_inv_8
*I *450:Z O *D sg13g2_einvn_8
*I *453:Z O *D sg13g2_einvn_4
*CAP
1 *454:A 0.00152324
2 *450:Z 0
3 *453:Z 0.000425203
4 *111:25 0.00213169
5 *111:8 0.00103365
6 *454:A *458:TE_B 0
7 *454:A *461:TE_B 0.000339583
8 *454:A *185:47 4.77425e-05
9 *454:A *207:10 0.000208254
10 *454:A *242:174 0.000434901
11 *111:8 *172:24 0
12 *111:8 *230:44 0
13 *111:25 *171:18 0.000918844
14 *111:25 *172:24 0
15 *111:25 *182:20 0
16 *111:25 *182:30 0
17 *111:25 *183:12 0
18 *111:25 *183:22 0
19 *111:25 *185:55 7.45103e-05
20 *111:25 *230:44 0
21 *382:A *454:A 0
22 *455:A *454:A 0
23 *587:A *111:25 0
24 *46:8 *454:A 0
25 *46:21 *454:A 0
26 *46:32 *454:A 0
27 *46:41 *454:A 0
28 *70:14 *454:A 0
29 *86:16 *111:8 0.000198079
*RES
1 *453:Z *111:8 24.4084 
2 *111:8 *450:Z 20 
3 *111:8 *111:25 47.0246 
4 *111:25 *454:A 35.4603 
*END

*D_NET *112 0.00373818
*CONN
*I *356:A I *D sg13g2_buf_16
*I *524:Z O *D sg13g2_einvn_8
*I *528:Z O *D sg13g2_einvn_8
*CAP
1 *356:A 9.81802e-05
2 *524:Z 0.000116244
3 *528:Z 0
4 *112:45 0.000884639
5 *112:23 0.000147648
6 *112:19 0.000698904
7 *112:11 0.00162326
8 *112:6 0.000169305
9 *524:Z *185:20 0
10 *524:Z *230:44 0
11 *112:11 *161:24 0
12 *112:19 *230:44 0
13 *112:19 *251:14 0
14 *112:23 *185:20 0
15 *112:45 *157:14 0
16 *112:45 *255:16 0
17 *526:A *112:19 0
18 *529:A *112:19 0
19 *38:45 *112:11 0
20 *38:45 *112:45 0
21 *103:8 *112:19 0
22 *103:33 *112:11 0
23 *103:33 *112:19 0
24 *103:33 *112:45 0
*RES
1 *528:Z *112:6 40 
2 *112:6 *112:11 1.339 
3 *112:11 *112:19 45.3045 
4 *112:19 *112:23 20.3193 
5 *112:23 *524:Z 20.9682 
6 *112:11 *112:45 26.2315 
7 *112:45 *356:A 20.9682 
*END

*D_NET *113 0.00444231
*CONN
*I *448:Z O *D sg13g2_einvn_8
*I *421:A I *D sg13g2_buf_16
*I *358:A I *D sg13g2_buf_16
*I *452:Z O *D sg13g2_einvn_8
*CAP
1 *448:Z 0
2 *421:A 0.000134177
3 *358:A 0
4 *452:Z 0.000255922
5 *113:43 0.000921949
6 *113:27 0.000521967
7 *113:19 0.00178539
8 *113:14 0.000521318
9 *113:10 0.000301585
10 *421:A *130:14 0
11 *421:A *242:129 0
12 *113:10 *205:20 0
13 *113:10 *224:23 0
14 *113:14 *205:20 0
15 *113:14 *224:23 0
16 *113:14 *230:44 0
17 *113:19 *598:Z 0
18 *113:19 *246:18 0
19 *113:27 *224:29 0
20 *113:27 *242:174 0
21 *113:27 *246:18 0
22 *113:43 *598:Z 0
23 *113:43 *130:14 0
24 *113:43 *242:151 0
25 *44:51 *113:43 0
26 *69:8 *113:43 0
27 *70:14 *113:27 0
28 *89:8 *113:19 0
*RES
1 *452:Z *113:10 22.5029 
2 *113:10 *113:14 20.5356 
3 *113:14 *113:19 4.3054 
4 *113:19 *113:27 44.7792 
5 *113:27 *358:A 40 
6 *113:19 *113:43 26.6023 
7 *113:43 *421:A 21.1845 
8 *113:10 *448:Z 20 
*END

*D_NET *114 0.000564359
*CONN
*I *359:A I *D sg13g2_buf_16
*I *421:X O *D sg13g2_buf_16
*CAP
1 *359:A 0.000282179
2 *421:X 0.000282179
3 *359:A *188:42 0
4 *359:A *247:24 0
5 *381:A *359:A 0
6 *47:15 *359:A 0
*RES
1 *421:X *359:A 42.7501 
*END

*D_NET *115 0.00557081
*CONN
*I *448:TE_B I *D sg13g2_einvn_8
*I *449:Y O *D sg13g2_inv_1
*CAP
1 *448:TE_B 0
2 *449:Y 0.00130302
3 *115:20 0.000519534
4 *115:8 0.00182255
5 *115:8 *449:A 0
6 *115:8 *456:TE_B 0
7 *115:8 *205:20 0
8 *115:8 *224:23 0
9 *115:20 *333:A 0.00014415
10 *115:20 *224:29 0
11 *115:20 *246:12 8.03692e-05
12 *115:20 *246:18 0
13 *9:15 *115:20 0.000133209
14 *25:11 *115:20 0
15 *89:16 *115:8 0.00156798
*RES
1 *449:Y *115:8 33.2149 
2 *115:8 *115:20 45.5105 
3 *115:20 *448:TE_B 20 
*END

*D_NET *116 0.000385312
*CONN
*I *450:TE_B I *D sg13g2_einvn_8
*I *451:Y O *D sg13g2_inv_1
*CAP
1 *450:TE_B 2.72561e-05
2 *451:Y 6.65652e-05
3 *116:8 9.38213e-05
4 *450:TE_B *186:26 4.77425e-05
5 *116:8 *453:TE_B 0.000127878
6 *8:25 *450:TE_B 0
7 *24:9 *116:8 2.20486e-05
*RES
1 *451:Y *116:8 40.8446 
2 *116:8 *450:TE_B 40.3193 
*END

*D_NET *117 0.00219028
*CONN
*I *458:A I *D sg13g2_einvn_8
*I *455:X O *D sg13g2_buf_16
*CAP
1 *458:A 0.000173385
2 *455:X 0.00080694
3 *117:8 0.000980326
4 *458:A *433:A 0
5 *458:A *458:Z 0.000182106
6 *458:A *119:33 4.75188e-05
7 *458:A *231:19 0
8 *117:8 *119:8 0
9 *117:8 *119:33 0
*RES
1 *455:X *117:8 47.2718 
2 *117:8 *458:A 41.8334 
*END

*D_NET *118 0.00136437
*CONN
*I *458:Z O *D sg13g2_einvn_8
*I *462:A I *D sg13g2_inv_8
*I *461:Z O *D sg13g2_einvn_4
*CAP
1 *458:Z 0.000281976
2 *462:A 0.0002697
3 *461:Z 0.000551676
4 *440:TE_B *458:Z 0
5 *458:A *458:Z 0.000182106
6 *461:A *458:Z 7.89079e-05
7 *461:A *462:A 0
8 *46:41 *458:Z 0
9 *46:41 *462:A 0
*RES
1 *461:Z *462:A 42.6471 
2 *461:Z *458:Z 43.2445 
*END

*D_NET *119 0.00520143
*CONN
*I *563:A I *D sg13g2_buf_8
*I *456:Z O *D sg13g2_einvn_8
*I *460:Z O *D sg13g2_einvn_8
*CAP
1 *563:A 0
2 *456:Z 0.000607233
3 *460:Z 0.000283058
4 *119:33 0.0013842
5 *119:8 0.00227449
6 *456:Z *458:TE_B 0
7 *456:Z *228:10 0
8 *456:Z *230:44 0
9 *119:8 *199:29 0
10 *119:8 *228:10 0.000179443
11 *119:33 *598:A 0.000274439
12 *119:33 *185:55 0
13 *119:33 *199:29 0
14 *119:33 *246:18 8.00842e-05
15 *455:A *456:Z 7.09536e-05
16 *458:A *119:33 4.75188e-05
17 *34:22 *119:33 0
18 *46:8 *119:33 0
19 *46:21 *119:33 0
20 *46:32 *119:33 0
21 *46:41 *119:33 0
22 *110:6 *456:Z 0
23 *117:8 *119:8 0
24 *117:8 *119:33 0
*RES
1 *460:Z *119:8 42.8222 
2 *119:8 *456:Z 46.2418 
3 *119:8 *119:33 33.7093 
4 *119:33 *563:A 20 
*END

*D_NET *120 0.00139882
*CONN
*I *456:TE_B I *D sg13g2_einvn_8
*I *457:Y O *D sg13g2_inv_1
*CAP
1 *456:TE_B 0.000376099
2 *457:Y 0.000376099
3 *456:TE_B *559:A 0
4 *456:TE_B *178:12 0
5 *456:TE_B *232:35 0.000306897
6 *89:16 *456:TE_B 0.000339726
7 *115:8 *456:TE_B 0
*RES
1 *457:Y *456:TE_B 44.1612 
*END

*D_NET *121 0.00364491
*CONN
*I *458:TE_B I *D sg13g2_einvn_8
*I *459:Y O *D sg13g2_inv_1
*CAP
1 *458:TE_B 0.000949695
2 *459:Y 0.000709215
3 *121:10 0.00165891
4 *458:TE_B *461:TE_B 0
5 *458:TE_B *207:10 0
6 *121:10 *459:A 0.000144985
7 *121:10 *155:8 0
8 *121:10 *184:73 0
9 *121:10 *232:35 0
10 *454:A *458:TE_B 0
11 *455:A *458:TE_B 0.000182106
12 *456:Z *458:TE_B 0
13 *46:41 *458:TE_B 0
14 *46:41 *121:10 0
15 *91:27 *458:TE_B 0
16 *91:27 *121:10 0
*RES
1 *459:Y *121:10 46.7568 
2 *121:10 *458:TE_B 49.4142 
*END

*D_NET *122 0.00881555
*CONN
*I *469:A I *D sg13g2_inv_8
*I *465:Z O *D sg13g2_einvn_8
*I *468:Z O *D sg13g2_einvn_8
*CAP
1 *469:A 0.000358759
2 *465:Z 0
3 *468:Z 0
4 *122:25 0.00269622
5 *122:14 0.000988025
6 *122:4 0.00332549
7 *469:A *210:20 0.000209526
8 *122:14 *123:47 0
9 *122:25 *123:13 0
10 *122:25 *123:47 0
11 *122:25 *173:14 0
12 *122:25 *220:14 0
13 *122:25 *233:14 0
14 *440:TE_B *469:A 0
15 *461:A *469:A 0
16 *48:6 *122:14 0
17 *48:15 *122:14 0
18 *51:15 *122:14 0
19 *66:8 *122:25 0
20 *71:10 *122:14 0.000125963
21 *71:10 *122:25 0
22 *92:21 *122:14 0.00111156
23 *92:21 *122:25 0
24 *106:15 *122:25 0
25 *106:35 *122:25 0
26 *106:55 *122:25 0
*RES
1 *468:Z *122:4 20 
2 *122:4 *122:14 49.888 
3 *122:14 *465:Z 20 
4 *122:4 *122:25 41.836 
5 *122:25 *469:A 43.3475 
*END

*D_NET *123 0.00700855
*CONN
*I *463:Z O *D sg13g2_einvn_8
*I *360:A I *D sg13g2_buf_16
*I *467:Z O *D sg13g2_einvn_8
*CAP
1 *463:Z 8.86242e-05
2 *360:A 0.000203604
3 *467:Z 5.67191e-05
4 *123:55 0.000694584
5 *123:47 0.00160205
6 *123:25 0.000734878
7 *123:13 0.00254937
8 *123:8 0.00107872
9 *360:A *334:B 0
10 *463:Z *191:14 0
11 *123:8 *227:17 0
12 *123:13 *231:19 0
13 *123:25 *574:A 0
14 *123:25 *166:101 0
15 *123:25 *209:6 0
16 *123:25 *209:19 0
17 *123:47 *468:TE_B 0
18 *123:55 *474:TE_B 0
19 *34:16 *123:13 0
20 *48:21 *123:47 0
21 *49:19 *123:25 0
22 *66:8 *123:47 0
23 *66:16 *123:25 0
24 *71:10 *123:13 0
25 *71:10 *123:47 0
26 *93:8 *123:55 0
27 *104:16 *123:8 0
28 *106:35 *123:13 0
29 *107:17 *123:13 0
30 *122:14 *123:47 0
31 *122:25 *123:13 0
32 *122:25 *123:47 0
*RES
1 *467:Z *123:8 40.5356 
2 *123:8 *123:13 8.755 
3 *123:13 *123:25 25.3663 
4 *123:25 *360:A 21.5003 
5 *123:13 *123:47 49.1773 
6 *123:47 *123:55 26.6744 
7 *123:55 *463:Z 20.7828 
*END

*D_NET *124 0.00704769
*CONN
*I *463:TE_B I *D sg13g2_einvn_8
*I *464:Y O *D sg13g2_inv_1
*CAP
1 *463:TE_B 0
2 *464:Y 0
3 *124:12 0.00181142
4 *124:6 0.00181142
5 *124:12 *125:16 0
6 *124:12 *191:14 0
7 *124:12 *210:8 0.000288589
8 *124:12 *216:12 0.00284684
9 *124:12 *234:14 0
10 *124:12 *234:37 0
11 *446:A *124:12 0
12 *10:11 *124:12 0
13 *41:33 *124:12 0
14 *73:22 *124:12 0
15 *88:8 *124:12 0.000289417
16 *92:21 *124:12 0
*RES
1 *464:Y *124:6 40 
2 *124:6 *124:12 41.8978 
3 *124:12 *463:TE_B 20 
*END

*D_NET *125 0.0103044
*CONN
*I *465:TE_B I *D sg13g2_einvn_8
*I *466:Y O *D sg13g2_inv_1
*CAP
1 *465:TE_B 4.66834e-05
2 *466:Y 0.000404211
3 *125:20 0.00220246
4 *125:16 0.003988
5 *125:10 0.00223644
6 *465:TE_B *168:12 0
7 *125:10 *191:8 0
8 *125:10 *210:37 0.000171958
9 *125:16 *376:A 0
10 *125:16 *445:TE_B 0
11 *125:16 *467:TE_B 0
12 *125:16 *167:10 0
13 *125:16 *173:14 0
14 *125:16 *188:42 0
15 *125:16 *210:8 0
16 *125:16 *210:20 0
17 *125:16 *220:14 0
18 *125:16 *227:17 0
19 *125:16 *242:109 0
20 *125:16 *247:24 0
21 *125:20 *129:8 0
22 *125:20 *177:86 0
23 *125:20 *192:16 0
24 *446:A *125:16 0.000714592
25 *461:A *125:10 0.000299954
26 *16:9 *465:TE_B 8.02267e-05
27 *46:41 *125:10 0
28 *66:22 *125:20 0
29 *72:10 *125:20 0
30 *73:10 *125:20 0
31 *73:33 *125:20 0
32 *91:27 *125:16 0
33 *92:27 *125:20 0
34 *104:18 *125:16 0.000159839
35 *124:12 *125:16 0
*RES
1 *466:Y *125:10 44.3466 
2 *125:10 *125:16 38.437 
3 *125:16 *125:20 39.3846 
4 *125:20 *465:TE_B 40.5356 
*END

*D_NET *126 0.014935
*CONN
*I *472:Z O *D sg13g2_einvn_8
*I *476:A I *D sg13g2_inv_8
*I *475:Z O *D sg13g2_einvn_8
*CAP
1 *472:Z 0
2 *476:A 0
3 *475:Z 0.00073008
4 *126:22 0.00175028
5 *126:10 0.00409373
6 *126:6 0.00307353
7 *126:6 *168:12 0.000321475
8 *126:6 *168:18 8.00842e-05
9 *126:6 *212:17 0
10 *126:10 *130:22 0
11 *126:10 *166:38 0.000284339
12 *126:10 *177:16 0
13 *126:10 *183:37 0
14 *126:10 *248:8 0.00124217
15 *126:22 *346:B 0
16 *126:22 *347:A 4.78578e-05
17 *126:22 *473:A 0.000304985
18 *126:22 *599:Z 0
19 *126:22 *605:A 0.000241052
20 *126:22 *607:A 0
21 *126:22 *130:14 0.00102432
22 *126:22 *167:27 0
23 *126:22 *192:10 7.46854e-05
24 *126:22 *199:43 0
25 *126:22 *254:10 0.000368943
26 *348:B *126:22 0
27 *567:A *126:6 0
28 *568:A *126:6 0.000242098
29 *34:22 *126:22 0
30 *39:6 *126:22 0.000111712
31 *39:16 *126:10 0.00012706
32 *50:11 *126:10 0
33 *73:33 *126:6 0
34 *75:8 *126:10 0.000284339
35 *75:31 *126:10 0
36 *96:12 *126:10 0
37 *96:20 *126:6 0.000532228
*RES
1 *475:Z *126:6 27.6735 
2 *126:6 *126:10 41.6094 
3 *126:10 *126:22 37.3246 
4 *126:22 *476:A 20 
5 *126:6 *472:Z 20 
*END

*D_NET *127 0.00649418
*CONN
*I *417:A I *D sg13g2_buf_16
*I *362:A I *D sg13g2_buf_16
*I *470:Z O *D sg13g2_einvn_8
*I *474:Z O *D sg13g2_einvn_8
*CAP
1 *417:A 0
2 *362:A 0.000112323
3 *470:Z 4.85408e-05
4 *474:Z 0
5 *127:50 0.00033678
6 *127:34 0.000751194
7 *127:32 0.00126935
8 *127:23 0.000437673
9 *127:21 9.54331e-05
10 *127:17 0.00172144
11 *127:8 0.00172144
12 *127:6 0
13 *362:A *177:80 0
14 *470:Z *600:TE_B 0
15 *470:Z *192:16 0
16 *470:Z *242:82 0
17 *127:17 *215:8 0
18 *127:32 *215:8 0
19 *127:34 *166:20 0
20 *127:34 *193:10 0
21 *127:34 *215:8 0
22 *127:50 *177:80 0
23 *51:6 *127:23 0
24 *51:6 *127:32 0
25 *51:15 *127:23 0
*RES
1 *474:Z *127:6 40 
2 *127:6 *127:8 20 
3 *127:8 *127:17 36.0577 
4 *127:17 *127:21 20 
5 *127:21 *127:23 0.9682 
6 *127:23 *127:32 23.1724 
7 *127:32 *127:34 7.7662 
8 *127:34 *470:Z 40.5356 
9 *127:32 *127:50 22.4823 
10 *127:50 *362:A 21.1845 
11 *127:21 *417:A 20 
*END

*D_NET *128 0.000406973
*CONN
*I *363:A I *D sg13g2_buf_16
*I *417:X O *D sg13g2_buf_16
*CAP
1 *363:A 0.000203487
2 *417:X 0.000203487
3 *363:A *166:86 0
4 *35:56 *363:A 0
*RES
1 *417:X *363:A 41.7201 
*END

*D_NET *129 0.00213772
*CONN
*I *470:TE_B I *D sg13g2_einvn_8
*I *471:Y O *D sg13g2_inv_1
*CAP
1 *470:TE_B 0.000555979
2 *471:Y 0.000198142
3 *129:8 0.000754121
4 *470:TE_B *434:A 8.01118e-05
5 *470:TE_B *600:A 0
6 *470:TE_B *601:TE_B 0
7 *470:TE_B *166:86 0.000436715
8 *73:10 *470:TE_B 0.000112648
9 *125:20 *129:8 0
*RES
1 *471:Y *129:8 42.0806 
2 *129:8 *470:TE_B 45.9637 
*END

*D_NET *130 0.0139078
*CONN
*I *472:TE_B I *D sg13g2_einvn_8
*I *473:Y O *D sg13g2_inv_1
*CAP
1 *472:TE_B 0.000150371
2 *473:Y 0.00128891
3 *130:22 0.00105821
4 *130:14 0.00219675
5 *472:TE_B *167:47 0.000144216
6 *130:14 *473:A 0.000239977
7 *130:14 *596:Z 0
8 *130:14 *607:A 0
9 *130:14 *192:10 0.000400418
10 *130:14 *242:127 0
11 *130:14 *242:129 0
12 *130:22 *346:B 0.000233917
13 *130:22 *167:31 0.00347593
14 *130:22 *167:39 0.00012816
15 *130:22 *177:28 0.00248143
16 *130:22 *177:30 0.00108523
17 *130:22 *203:8 0
18 *338:A *130:14 0
19 *421:A *130:14 0
20 *50:11 *130:22 0
21 *113:43 *130:14 0
22 *126:10 *130:22 0
23 *126:22 *130:14 0.00102432
*RES
1 *473:Y *130:14 33.3385 
2 *130:14 *130:22 39.0344 
3 *130:22 *472:TE_B 41.5347 
*END

*D_NET *131 0.0096087
*CONN
*I *479:Z O *D sg13g2_einvn_8
*I *483:A I *D sg13g2_inv_8
*I *482:Z O *D sg13g2_einvn_8
*CAP
1 *479:Z 0.000375817
2 *483:A 0
3 *482:Z 0.000505445
4 *131:28 0.000944262
5 *131:22 0.00132008
6 *131:20 0.00162934
7 *131:16 0.00213478
8 *479:Z *132:41 0
9 *479:Z *229:6 0
10 *131:16 *145:8 0.000113471
11 *131:16 *145:16 0
12 *131:16 *170:47 0.000176134
13 *131:16 *177:16 0
14 *131:16 *212:10 0
15 *131:20 *132:41 0
16 *131:20 *212:10 1.54008e-05
17 *131:20 *229:6 0
18 *131:28 *487:A 0
19 *131:28 *134:28 0.000963712
20 *131:28 *169:41 0.00118135
21 *131:28 *181:12 1.53561e-05
22 *131:28 *181:18 0.000233555
23 *131:28 *194:8 0
24 *131:28 *218:10 0
25 *568:A *131:20 0
26 *576:A *131:20 0
27 *17:15 *479:Z 0
28 *52:17 *131:20 0
29 *52:29 *131:20 0
30 *77:10 *479:Z 0
31 *96:20 *131:20 0
*RES
1 *482:Z *131:16 45.5208 
2 *131:16 *131:20 33.9462 
3 *131:20 *131:22 20 
4 *131:22 *131:28 31.0519 
5 *131:28 *483:A 20 
6 *131:22 *479:Z 43.3578 
*END

*D_NET *132 0.00521359
*CONN
*I *477:Z O *D sg13g2_einvn_8
*I *364:A I *D sg13g2_buf_16
*I *481:Z O *D sg13g2_einvn_8
*CAP
1 *477:Z 0.000122694
2 *364:A 8.69175e-05
3 *481:Z 0
4 *132:41 0.000689477
5 *132:25 0.00114092
6 *132:15 0.00239718
7 *132:6 0.000776399
8 *477:Z *477:A 0
9 *132:15 *133:18 0
10 *132:15 *169:49 0
11 *132:15 *218:10 0
12 *132:41 *477:A 0
13 *132:41 *133:18 0
14 *132:41 *134:28 0
15 *391:A *132:25 0
16 *479:Z *132:41 0
17 *52:17 *364:A 0
18 *52:17 *132:25 0
19 *52:29 *364:A 0
20 *53:6 *132:25 0
21 *54:35 *132:41 0
22 *54:57 *132:25 0
23 *55:15 *364:A 0
24 *55:15 *132:25 0
25 *77:10 *477:Z 0
26 *77:10 *132:41 0
27 *131:20 *132:41 0
*RES
1 *481:Z *132:6 40 
2 *132:6 *132:15 6.2109 
3 *132:15 *132:25 29.7438 
4 *132:25 *364:A 20.9682 
5 *132:15 *132:41 24.8101 
6 *132:41 *477:Z 20.9682 
*END

*D_NET *133 0.00344153
*CONN
*I *477:TE_B I *D sg13g2_einvn_8
*I *478:Y O *D sg13g2_inv_1
*CAP
1 *477:TE_B 0.000638152
2 *478:Y 0.000849317
3 *133:18 0.00148747
4 *477:TE_B *218:8 0
5 *6:11 *477:TE_B 0
6 *17:9 *477:TE_B 0.000466594
7 *82:36 *477:TE_B 0
8 *94:28 *477:TE_B 0
9 *132:15 *133:18 0
10 *132:41 *133:18 0
*RES
1 *478:Y *133:18 48.3739 
2 *133:18 *477:TE_B 46.5096 
*END

*D_NET *134 0.0104368
*CONN
*I *479:TE_B I *D sg13g2_einvn_8
*I *480:Y O *D sg13g2_inv_1
*CAP
1 *479:TE_B 0
2 *480:Y 0.00148265
3 *134:28 0.000646023
4 *134:20 0.00135795
5 *134:12 0.00219457
6 *134:12 *369:A 0
7 *134:12 *413:A 0
8 *134:12 *505:TE_B 0
9 *134:12 *506:TE_B 0.000468007
10 *134:12 *140:16 0.000272248
11 *134:12 *148:35 0
12 *134:12 *148:51 0
13 *134:12 *151:12 0
14 *134:12 *171:20 0.00113109
15 *134:12 *211:15 0
16 *134:20 *137:15 0
17 *134:20 *166:16 0.000143864
18 *134:20 *218:10 0.00177672
19 *134:28 *477:A 0
20 *134:28 *194:8 0
21 *54:35 *134:28 0
22 *60:31 *134:12 0
23 *81:22 *134:12 0
24 *102:25 *134:12 0
25 *131:28 *134:28 0.000963712
26 *132:41 *134:28 0
*RES
1 *480:Y *134:12 35.2131 
2 *134:12 *134:20 49.2288 
3 *134:20 *134:28 46.8186 
4 *134:28 *479:TE_B 20 
*END

*D_NET *135 0.00286067
*CONN
*I *487:A I *D sg13g2_einvn_8
*I *484:X O *D sg13g2_buf_16
*CAP
1 *487:A 0.000705728
2 *484:X 0.000473524
3 *135:10 0.00117925
4 *487:A *136:12 0
5 *487:A *136:18 0
6 *487:A *137:35 0
7 *487:A *137:41 0
8 *487:A *143:43 0
9 *487:A *148:51 0
10 *487:A *181:12 0
11 *135:10 *497:A 0
12 *135:10 *143:8 0
13 *135:10 *143:32 0
14 *135:10 *230:21 0
15 *17:15 *135:10 0.000502169
16 *57:6 *487:A 0
17 *57:13 *487:A 0
18 *79:6 *135:10 0
19 *99:8 *487:A 0
20 *131:28 *487:A 0
*RES
1 *484:X *135:10 44.4933 
2 *135:10 *487:A 45.6995 
*END

*D_NET *136 0.0124861
*CONN
*I *487:Z O *D sg13g2_einvn_8
*I *491:A I *D sg13g2_inv_8
*I *490:Z O *D sg13g2_einvn_4
*CAP
1 *487:Z 0
2 *491:A 0.00026049
3 *490:Z 0
4 *136:18 0.00269124
5 *136:12 0.00355297
6 *136:6 0.00112223
7 *491:A *499:A 0.000401694
8 *491:A *142:12 4.77425e-05
9 *491:A *197:14 0.000304362
10 *136:12 *137:48 0
11 *136:12 *137:61 0
12 *136:12 *169:55 0.000231558
13 *136:12 *171:33 0.00261002
14 *136:18 *503:A 0
15 *136:18 *140:16 0
16 *136:18 *147:10 0
17 *136:18 *147:18 0
18 *136:18 *159:15 0
19 *136:18 *159:31 0
20 *136:18 *240:8 0.00113553
21 *487:A *136:12 0
22 *487:A *136:18 0
23 *28:25 *136:18 0.000128248
24 *61:11 *136:18 0
25 *61:39 *136:18 0
26 *94:24 *136:12 0
27 *98:20 *136:18 0
28 *99:8 *136:12 0
29 *99:8 *136:18 0
30 *100:8 *136:18 0
*RES
1 *490:Z *136:6 40 
2 *136:6 *136:12 34.4818 
3 *136:12 *136:18 43.072 
4 *136:18 *491:A 42.9149 
5 *136:12 *487:Z 20 
*END

*D_NET *137 0.00604112
*CONN
*I *418:A I *D sg13g2_buf_16
*I *366:A I *D sg13g2_buf_16
*I *485:Z O *D sg13g2_einvn_8
*I *489:Z O *D sg13g2_einvn_8
*CAP
1 *418:A 0.000103956
2 *366:A 0
3 *485:Z 0
4 *489:Z 0.000131788
5 *137:61 0.000928073
6 *137:48 0.000928019
7 *137:41 0.000235732
8 *137:35 0.000411953
9 *137:21 0.000922925
10 *137:15 0.00172497
11 *137:6 0.000653706
12 *418:A *196:12 0
13 *137:6 *166:16 0
14 *137:15 *166:16 0
15 *137:21 *140:16 0
16 *137:21 *195:20 0
17 *137:35 *368:A 0
18 *137:35 *143:43 0
19 *137:61 *196:12 0
20 *411:A *137:61 0
21 *487:A *137:35 0
22 *487:A *137:41 0
23 *535:A *418:A 0
24 *535:A *137:61 0
25 *56:15 *137:15 0
26 *56:15 *137:35 0
27 *56:15 *137:41 0
28 *56:15 *137:48 0
29 *56:15 *137:61 0
30 *56:37 *137:6 0
31 *56:37 *137:15 0
32 *58:17 *137:61 0
33 *60:52 *137:61 0
34 *61:43 *137:21 0
35 *94:20 *137:61 0
36 *102:25 *137:21 0
37 *134:20 *137:15 0
38 *136:12 *137:48 0
39 *136:12 *137:61 0
*RES
1 *489:Z *137:6 20.9682 
2 *137:6 *137:15 24.9955 
3 *137:15 *137:21 9.1464 
4 *137:21 *485:Z 40 
5 *137:15 *137:35 22.6986 
6 *137:35 *137:41 1.5656 
7 *137:41 *366:A 20 
8 *137:41 *137:48 1.0609 
9 *137:48 *137:61 7.9619 
10 *137:61 *418:A 20.9682 
*END

*D_NET *138 0.00155818
*CONN
*I *367:A I *D sg13g2_buf_16
*I *418:X O *D sg13g2_buf_16
*CAP
1 *367:A 9.50156e-05
2 *418:X 0.000162079
3 *138:15 0.00061701
4 *138:6 0.000684074
5 *138:15 *145:16 0
6 *138:15 *156:18 0
7 *138:15 *170:22 0
8 *535:A *367:A 0
9 *53:58 *138:6 0
10 *55:6 *138:6 0
11 *55:15 *138:6 0
*RES
1 *418:X *138:6 21.2978 
2 *138:6 *138:15 23.7698 
3 *138:15 *367:A 40.7519 
*END

*D_NET *139 0.00543243
*CONN
*I *485:TE_B I *D sg13g2_einvn_8
*I *486:Y O *D sg13g2_inv_1
*CAP
1 *485:TE_B 0
2 *486:Y 6.04604e-05
3 *139:14 0.00184593
4 *139:8 0.00190639
5 *139:8 *486:A 0.000111828
6 *139:14 *143:21 0
7 *139:14 *145:32 0
8 *139:14 *146:8 0
9 *139:14 *147:18 0
10 *139:14 *153:12 0
11 *139:14 *154:38 0
12 *139:14 *158:8 0
13 *139:14 *181:12 0
14 *139:14 *201:8 0.00139499
15 *546:A *139:14 0
16 *28:35 *139:8 0.000112826
17 *79:16 *139:14 0
18 *97:24 *139:14 0
19 *102:12 *139:14 0
*RES
1 *486:Y *139:8 40.7519 
2 *139:8 *139:14 38.5297 
3 *139:14 *485:TE_B 20 
*END

*D_NET *140 0.00654296
*CONN
*I *487:TE_B I *D sg13g2_einvn_8
*I *488:Y O *D sg13g2_inv_1
*CAP
1 *487:TE_B 0
2 *488:Y 0.000223047
3 *140:16 0.00262213
4 *140:10 0.00284518
5 *140:10 *175:14 0.000338135
6 *140:16 *505:TE_B 0
7 *140:16 *151:12 0
8 *140:16 *159:15 0
9 *140:16 *159:31 0
10 *140:16 *195:12 0
11 *140:16 *195:20 0
12 *140:16 *222:17 0
13 *140:16 *240:8 0
14 *20:29 *140:16 0
15 *28:35 *140:10 0.000242225
16 *100:8 *140:16 0
17 *134:12 *140:16 0.000272248
18 *136:18 *140:16 0
19 *137:21 *140:16 0
*RES
1 *488:Y *140:10 42.6162 
2 *140:10 *140:16 42.763 
3 *140:16 *487:TE_B 20 
*END

*D_NET *141 0.0009286
*CONN
*I *495:A I *D sg13g2_einvn_8
*I *492:X O *D sg13g2_buf_16
*CAP
1 *495:A 0.0004566
2 *492:X 0.0004566
3 *495:A *154:15 0
4 *495:A *154:19 0
5 *495:A *185:28 1.54008e-05
6 *495:A *230:44 0
7 *513:A *495:A 0
*RES
1 *492:X *495:A 44.3981 
*END

*D_NET *142 0.00886626
*CONN
*I *499:A I *D sg13g2_inv_8
*I *495:Z O *D sg13g2_einvn_8
*I *498:Z O *D sg13g2_einvn_4
*CAP
1 *499:A 0.000932666
2 *495:Z 0
3 *498:Z 0.000212056
4 *142:20 0.000751401
5 *142:12 0.00183852
6 *142:8 0.000366511
7 *499:A *517:A 0.000176175
8 *499:A *526:TE_B 0.000242213
9 *499:A *164:10 0
10 *499:A *175:14 0.000224813
11 *499:A *197:14 0.000923176
12 *142:8 *169:14 7.43655e-05
13 *142:8 *169:29 0
14 *142:12 *169:29 0.000143925
15 *142:12 *175:14 0.000273331
16 *142:12 *197:14 0
17 *142:20 *169:29 0
18 *142:20 *195:12 0.00176068
19 *142:20 *218:20 0
20 *142:20 *225:16 0.00049699
21 *491:A *499:A 0.000401694
22 *491:A *142:12 4.77425e-05
23 *17:19 *142:8 0
24 *20:29 *499:A 0
*RES
1 *498:Z *142:8 41.8334 
2 *142:8 *142:12 21.8334 
3 *142:12 *142:20 49.1052 
4 *142:20 *495:Z 20 
5 *142:12 *499:A 30.2897 
*END

*D_NET *143 0.00749638
*CONN
*I *368:A I *D sg13g2_buf_16
*I *493:Z O *D sg13g2_einvn_8
*I *497:Z O *D sg13g2_einvn_8
*CAP
1 *368:A 9.4705e-05
2 *493:Z 0.000108588
3 *497:Z 0
4 *143:43 0.000690861
5 *143:32 0.00067135
6 *143:21 0.00289191
7 *143:8 0.00287355
8 *143:4 0.000165415
9 *493:Z *152:12 0
10 *493:Z *197:14 0
11 *143:8 *497:A 0
12 *143:21 *152:12 0
13 *143:21 *174:14 0
14 *143:32 *181:12 0
15 *143:43 *181:12 0
16 *487:A *143:43 0
17 *20:23 *493:Z 0
18 *20:23 *143:21 0
19 *56:15 *368:A 0
20 *79:6 *143:43 0
21 *79:10 *143:21 0
22 *79:16 *143:21 0
23 *97:24 *143:21 0
24 *135:10 *143:8 0
25 *135:10 *143:32 0
26 *137:35 *368:A 0
27 *137:35 *143:43 0
28 *139:14 *143:21 0
*RES
1 *497:Z *143:4 20 
2 *143:4 *143:8 20.7519 
3 *143:8 *143:21 44.7612 
4 *143:21 *493:Z 20.9682 
5 *143:4 *143:32 0.8137 
6 *143:32 *143:43 5.6341 
7 *143:43 *368:A 20.9682 
*END

*D_NET *144 0.0195738
*CONN
*I *493:TE_B I *D sg13g2_einvn_8
*I *494:Y O *D sg13g2_inv_1
*CAP
1 *493:TE_B 5.80404e-05
2 *494:Y 0.000171281
3 *144:20 0.00167806
4 *144:12 0.00515029
5 *144:8 0.00370154
6 *144:8 *145:16 0
7 *144:8 *182:75 0.000279312
8 *144:12 *169:49 0.000896117
9 *144:12 *174:24 0
10 *144:12 *180:14 0
11 *144:12 *180:24 0
12 *144:12 *208:19 0
13 *144:20 *152:8 0.000178897
14 *144:20 *181:12 0
15 *508:A *144:20 0.000288087
16 *20:17 *144:20 0
17 *27:17 *144:8 0
18 *30:9 *144:20 0.00124302
19 *77:10 *144:20 0
20 *79:10 *144:20 0
21 *79:16 *144:20 0
22 *80:14 *144:20 0.00189075
23 *82:8 *144:20 0.0018373
24 *82:36 *144:20 0.00220112
*RES
1 *494:Y *144:8 41.5862 
2 *144:8 *144:12 40.4352 
3 *144:12 *144:20 46.4504 
4 *144:20 *493:TE_B 40.5356 
*END

*D_NET *145 0.0132763
*CONN
*I *495:TE_B I *D sg13g2_einvn_8
*I *496:Y O *D sg13g2_inv_1
*CAP
1 *495:TE_B 0
2 *496:Y 6.5325e-05
3 *145:32 0.000492264
4 *145:24 0.00125388
5 *145:16 0.00268534
6 *145:8 0.00198905
7 *145:16 *156:12 0
8 *145:16 *170:22 0.00124566
9 *145:16 *172:38 0.00102921
10 *145:16 *172:79 0.00142297
11 *145:16 *177:8 0
12 *145:16 *252:18 0.00129644
13 *145:24 *158:14 0
14 *145:24 *159:39 0
15 *145:32 *154:38 0
16 *145:32 *162:20 0.000567353
17 *27:17 *145:16 0
18 *61:19 *145:24 0
19 *83:10 *145:32 0
20 *83:18 *145:24 0.00111532
21 *101:16 *145:24 0
22 *131:16 *145:8 0.000113471
23 *131:16 *145:16 0
24 *138:15 *145:16 0
25 *139:14 *145:32 0
26 *144:8 *145:16 0
*RES
1 *496:Y *145:8 40.7519 
2 *145:8 *145:16 42.7733 
3 *145:16 *145:24 48.0546 
4 *145:24 *145:32 45.1809 
5 *145:32 *495:TE_B 20 
*END

*D_NET *146 0.00327107
*CONN
*I *503:A I *D sg13g2_einvn_8
*I *500:X O *D sg13g2_buf_16
*CAP
1 *503:A 0.0003393
2 *500:X 0.00112599
3 *146:8 0.00146529
4 *503:A *158:14 0
5 *503:A *159:39 0
6 *146:8 *157:8 0
7 *513:A *146:8 0
8 *61:19 *146:8 0
9 *61:39 *146:8 0
10 *79:16 *146:8 0
11 *83:10 *146:8 0
12 *98:20 *503:A 0.000340483
13 *136:18 *503:A 0
14 *139:14 *146:8 0
*RES
1 *500:X *146:8 49.6202 
2 *146:8 *503:A 43.5638 
*END

*D_NET *147 0.00455503
*CONN
*I *503:Z O *D sg13g2_einvn_8
*I *507:A I *D sg13g2_inv_8
*I *506:Z O *D sg13g2_einvn_4
*CAP
1 *503:Z 0
2 *507:A 0
3 *506:Z 0.000699181
4 *147:18 0.00120894
5 *147:10 0.00190812
6 *147:10 *148:51 0
7 *147:10 *151:12 0
8 *147:18 *158:8 0
9 *147:18 *169:35 0.000175693
10 *147:18 *172:64 0
11 *147:18 *222:17 0
12 *60:15 *147:10 0
13 *60:15 *147:18 0
14 *80:14 *147:18 1.54285e-05
15 *98:20 *147:10 0
16 *98:20 *147:18 0
17 *99:8 *147:10 0.000208968
18 *102:12 *147:18 0.000338706
19 *136:18 *147:10 0
20 *136:18 *147:18 0
21 *139:14 *147:18 0
*RES
1 *506:Z *147:10 47.6838 
2 *147:10 *147:18 31.3403 
3 *147:18 *507:A 20 
4 *147:10 *503:Z 40 
*END

*D_NET *148 0.0088236
*CONN
*I *419:A I *D sg13g2_buf_16
*I *369:A I *D sg13g2_buf_16
*I *501:Z O *D sg13g2_einvn_8
*I *505:Z O *D sg13g2_einvn_8
*CAP
1 *419:A 0.000110859
2 *369:A 9.01427e-05
3 *501:Z 6.33e-05
4 *505:Z 0.000101641
5 *148:51 0.00163326
6 *148:35 0.000253539
7 *148:21 0.00193478
8 *148:15 0.00228627
9 *148:11 0.00201098
10 *148:6 0.000338823
11 *369:A *505:TE_B 0
12 *419:A *602:Z 0
13 *419:A *171:20 0
14 *148:15 *230:21 0
15 *148:21 *511:Z 0
16 *148:21 *230:21 0
17 *148:35 *505:TE_B 0
18 *148:51 *506:TE_B 0
19 *148:51 *602:Z 0
20 *148:51 *604:Z 0
21 *148:51 *171:20 0
22 *371:A *148:11 0
23 *487:A *148:51 0
24 *17:19 *148:15 0
25 *17:19 *148:21 0
26 *20:23 *501:Z 0
27 *20:23 *148:21 0
28 *57:6 *148:51 0
29 *57:13 *148:11 0
30 *57:13 *148:51 0
31 *94:20 *148:51 0
32 *97:24 *148:21 0
33 *99:8 *148:51 0
34 *102:25 *148:51 0
35 *134:12 *369:A 0
36 *134:12 *148:35 0
37 *134:12 *148:51 0
38 *147:10 *148:51 0
*RES
1 *505:Z *148:6 20.9682 
2 *148:6 *148:11 2.266 
3 *148:11 *148:15 22.3278 
4 *148:15 *148:21 36.0886 
5 *148:21 *501:Z 20.5974 
6 *148:15 *148:35 21.6171 
7 *148:35 *369:A 20.9682 
8 *148:11 *148:51 13.7505 
9 *148:51 *419:A 20.9682 
*END

*D_NET *149 0.00151976
*CONN
*I *370:A I *D sg13g2_buf_16
*I *419:X O *D sg13g2_buf_16
*CAP
1 *370:A 9.52708e-05
2 *419:X 0.000174911
3 *149:15 0.000584968
4 *149:6 0.000664608
5 *370:A *171:20 0
6 *149:15 *156:18 0
7 *149:15 *170:22 0
8 *58:17 *149:6 0
*RES
1 *419:X *149:6 21.2978 
2 *149:6 *149:15 23.7698 
3 *149:15 *370:A 40.7519 
*END

*D_NET *150 0.0122343
*CONN
*I *501:TE_B I *D sg13g2_einvn_8
*I *502:Y O *D sg13g2_inv_1
*CAP
1 *501:TE_B 0
2 *502:Y 0.000211022
3 *150:26 0
4 *150:22 0.00185507
5 *150:14 0.0040708
6 *150:10 0.00242675
7 *150:10 *183:37 0.000282989
8 *150:14 *182:52 0
9 *150:22 *174:24 0.00338762
10 *31:13 *150:14 0
11 *75:31 *150:10 0
*RES
1 *502:Y *150:10 41.9055 
2 *150:10 *150:14 40.2189 
3 *150:14 *150:22 47.7173 
4 *150:22 *150:26 40 
5 *150:26 *501:TE_B 40 
*END

*D_NET *151 0.00658573
*CONN
*I *503:TE_B I *D sg13g2_einvn_8
*I *504:Y O *D sg13g2_inv_1
*CAP
1 *503:TE_B 0
2 *504:Y 0
3 *151:12 0.00148281
4 *151:6 0.00148281
5 *151:12 *505:TE_B 0
6 *151:12 *171:33 0.00362012
7 *151:12 *211:15 0
8 *54:57 *151:12 0
9 *134:12 *151:12 0
10 *140:16 *151:12 0
11 *147:10 *151:12 0
*RES
1 *504:Y *151:6 40 
2 *151:6 *151:12 40.0129 
3 *151:12 *503:TE_B 20 
*END

*D_NET *152 0.0093698
*CONN
*I *511:A I *D sg13g2_einvn_8
*I *508:X O *D sg13g2_buf_16
*CAP
1 *511:A 0
2 *508:X 0.000419108
3 *152:12 0.00208054
4 *152:8 0.00249965
5 *152:8 *181:12 0
6 *152:12 *511:Z 0
7 *152:12 *153:25 0.000370459
8 *152:12 *161:32 0.000856588
9 *152:12 *170:26 0.00214957
10 *152:12 *184:44 0.000208037
11 *152:12 *197:14 0
12 *493:Z *152:12 0
13 *20:17 *152:8 0.000606939
14 *20:23 *152:12 0
15 *30:9 *152:8 0
16 *143:21 *152:12 0
17 *144:20 *152:8 0.000178897
*RES
1 *508:X *152:8 44.5526 
2 *152:8 *152:12 41.0841 
3 *152:12 *511:A 20 
*END

*D_NET *153 0.0107671
*CONN
*I *511:Z O *D sg13g2_einvn_8
*I *515:A I *D sg13g2_inv_8
*I *514:Z O *D sg13g2_einvn_4
*CAP
1 *511:Z 0.0017766
2 *515:A 0
3 *514:Z 0.000203296
4 *153:25 0.00210665
5 *153:12 0.00156062
6 *153:8 0.00143387
7 *511:Z *517:TE_B 0
8 *511:Z *159:6 0
9 *511:Z *159:13 0
10 *511:Z *161:32 0.000824104
11 *511:Z *170:34 0
12 *153:12 *181:12 0
13 *153:12 *184:44 0.000282775
14 *153:12 *198:12 0
15 *153:12 *201:8 0
16 *153:25 *184:44 0.00033826
17 *153:25 *197:14 0
18 *514:A *153:8 4.77425e-05
19 *529:A *511:Z 0.00137521
20 *17:19 *153:25 0
21 *20:23 *511:Z 0
22 *79:16 *153:12 0.000447545
23 *80:14 *153:8 0
24 *97:24 *153:25 0
25 *139:14 *153:12 0
26 *148:21 *511:Z 0
27 *152:12 *511:Z 0
28 *152:12 *153:25 0.000370459
*RES
1 *514:Z *153:8 41.8334 
2 *153:8 *153:12 30.9798 
3 *153:12 *515:A 20 
4 *153:12 *153:25 43.3269 
5 *153:25 *511:Z 37.3246 
*END

*D_NET *154 0.00492144
*CONN
*I *509:Z O *D sg13g2_einvn_8
*I *372:A I *D sg13g2_buf_16
*I *513:Z O *D sg13g2_einvn_8
*CAP
1 *509:Z 0
2 *372:A 0.00017067
3 *513:Z 0.000116879
4 *154:38 0.00185644
5 *154:21 0.00168577
6 *154:19 0.000170052
7 *154:15 0.000479675
8 *154:6 0.000426502
9 *372:A *158:8 0
10 *372:A *159:45 0
11 *372:A *159:52 1.54556e-05
12 *372:A *159:73 0
13 *154:6 *509:A 0
14 *154:6 *198:12 0
15 *154:15 *509:A 0
16 *154:19 *509:A 0
17 *154:38 *158:8 0
18 *154:38 *159:39 0
19 *154:38 *159:45 0
20 *154:38 *218:10 0
21 *495:A *154:15 0
22 *495:A *154:19 0
23 *17:19 *154:38 0
24 *60:15 *372:A 0
25 *83:10 *154:38 0
26 *83:18 *154:38 0
27 *98:12 *372:A 0
28 *98:20 *154:38 0
29 *139:14 *154:38 0
30 *145:32 *154:38 0
*RES
1 *513:Z *154:6 20.9682 
2 *154:6 *154:15 3.0282 
3 *154:15 *154:19 1.4008 
4 *154:19 *154:21 20 
5 *154:21 *154:38 33.5033 
6 *154:38 *372:A 21.8128 
7 *154:19 *509:Z 20 
*END

*D_NET *155 0.00852805
*CONN
*I *509:TE_B I *D sg13g2_einvn_8
*I *510:Y O *D sg13g2_inv_1
*CAP
1 *509:TE_B 0
2 *510:Y 7.03599e-05
3 *155:20 0.0024386
4 *155:14 0.00415638
5 *155:8 0.00178815
6 *155:14 *174:10 0
7 *155:14 *184:73 0
8 *155:20 *169:29 0
9 *155:20 *174:10 0
10 *155:20 *218:20 0
11 *17:19 *155:20 7.45698e-05
12 *62:47 *155:20 0
13 *121:10 *155:8 0
*RES
1 *510:Y *155:8 40.5974 
2 *155:8 *155:14 40.0747 
3 *155:14 *155:20 44.9569 
4 *155:20 *509:TE_B 40 
*END

*D_NET *156 0.00698868
*CONN
*I *511:TE_B I *D sg13g2_einvn_8
*I *512:Y O *D sg13g2_inv_1
*CAP
1 *511:TE_B 0
2 *512:Y 0.000384455
3 *156:18 0.00308612
4 *156:12 0.00347058
5 *156:12 *182:75 0
6 *156:18 *170:22 4.7531e-05
7 *156:18 *182:48 0
8 *156:18 *182:75 0
9 *62:47 *156:18 0
10 *83:18 *156:18 0
11 *138:15 *156:18 0
12 *145:16 *156:12 0
13 *149:15 *156:18 0
*RES
1 *512:Y *156:12 43.1518 
2 *156:12 *156:18 44.6479 
3 *156:18 *511:TE_B 20 
*END

*D_NET *157 0.00358796
*CONN
*I *519:A I *D sg13g2_einvn_8
*I *516:X O *D sg13g2_buf_16
*CAP
1 *519:A 0
2 *516:X 0.0014946
3 *157:14 0.000145641
4 *157:8 0.00164024
5 *157:8 *185:28 0
6 *157:8 *242:14 0
7 *157:8 *254:22 0
8 *157:8 *255:16 0
9 *157:14 *158:35 7.34081e-05
10 *157:14 *214:18 0.000234074
11 *157:14 *255:16 0
12 *396:A *157:8 0
13 *61:19 *157:8 0
14 *62:10 *157:8 0
15 *62:27 *157:8 0
16 *62:34 *157:8 0
17 *62:47 *157:8 0
18 *101:16 *157:8 0
19 *112:45 *157:14 0
20 *146:8 *157:8 0
*RES
1 *516:X *157:8 33.3974 
2 *157:8 *157:14 41.5862 
3 *157:14 *519:A 20 
*END

*D_NET *158 0.00870975
*CONN
*I *519:Z O *D sg13g2_einvn_8
*I *523:A I *D sg13g2_inv_8
*I *522:Z O *D sg13g2_einvn_4
*CAP
1 *519:Z 0
2 *523:A 0
3 *522:Z 0.00111386
4 *158:35 0.00115869
5 *158:22 0.000808686
6 *158:14 0.00284436
7 *158:8 0.00199084
8 *158:8 *169:35 0
9 *158:14 *159:39 0
10 *158:22 *204:8 0.000598585
11 *158:35 *184:22 0
12 *158:35 *214:18 7.34081e-05
13 *372:A *158:8 0
14 *503:A *158:14 0
15 *20:29 *158:22 0
16 *28:17 *158:22 0
17 *28:25 *158:22 4.79124e-05
18 *60:15 *158:8 0
19 *61:11 *158:14 0
20 *61:39 *158:14 0
21 *62:21 *158:14 0
22 *62:21 *158:35 0
23 *98:20 *158:14 0
24 *101:16 *158:14 0
25 *101:16 *158:22 0
26 *102:12 *158:8 0
27 *139:14 *158:8 0
28 *145:24 *158:14 0
29 *147:18 *158:8 0
30 *154:38 *158:8 0
31 *157:14 *158:35 7.34081e-05
*RES
1 *522:Z *158:8 49.4039 
2 *158:8 *158:14 27.3439 
3 *158:14 *158:22 47.8383 
4 *158:22 *523:A 20 
5 *158:14 *158:35 48.24 
6 *158:35 *519:Z 20 
*END

*D_NET *159 0.00804273
*CONN
*I *420:A I *D sg13g2_buf_16
*I *374:A I *D sg13g2_buf_16
*I *517:Z O *D sg13g2_einvn_8
*I *521:Z O *D sg13g2_einvn_8
*CAP
1 *420:A 0.000112136
2 *374:A 0
3 *517:Z 0
4 *521:Z 0.000122272
5 *159:73 0.00165057
6 *159:52 0.00162204
7 *159:45 0.000212938
8 *159:39 0.000404355
9 *159:31 0.00151209
10 *159:15 0.000362332
11 *159:13 0.00175283
12 *159:6 0.0002757
13 *159:13 *517:TE_B 0
14 *159:13 *230:44 0
15 *159:73 *505:TE_B 0
16 *372:A *159:45 0
17 *372:A *159:52 1.54556e-05
18 *372:A *159:73 0
19 *503:A *159:39 0
20 *511:Z *159:6 0
21 *511:Z *159:13 0
22 *20:23 *159:6 0
23 *20:23 *159:13 0
24 *20:29 *159:15 0
25 *20:29 *159:31 0
26 *61:39 *159:31 0
27 *63:17 *159:73 0
28 *63:22 *159:73 0
29 *67:10 *159:73 0
30 *67:16 *159:73 0
31 *83:10 *159:31 0
32 *83:18 *159:31 0
33 *83:18 *159:39 0
34 *83:18 *159:45 0
35 *83:18 *159:52 0
36 *83:18 *159:73 0
37 *85:8 *159:45 0
38 *85:8 *159:73 0
39 *98:12 *159:52 0
40 *98:12 *159:73 0
41 *98:20 *159:39 0
42 *100:8 *159:31 0
43 *136:18 *159:15 0
44 *136:18 *159:31 0
45 *140:16 *159:15 0
46 *140:16 *159:31 0
47 *145:24 *159:39 0
48 *154:38 *159:39 0
49 *154:38 *159:45 0
50 *158:14 *159:39 0
*RES
1 *521:Z *159:6 20.9682 
2 *159:6 *159:13 21.4008 
3 *159:13 *159:15 2.575 
4 *159:15 *517:Z 40 
5 *159:13 *159:31 30.2794 
6 *159:31 *159:39 42.0909 
7 *159:39 *159:45 1.3184 
8 *159:45 *374:A 20 
9 *159:45 *159:52 0.9682 
10 *159:52 *159:73 13.596 
11 *159:73 *420:A 20.9682 
*END

*D_NET *160 0.000497924
*CONN
*I *375:A I *D sg13g2_buf_16
*I *420:X O *D sg13g2_buf_16
*CAP
1 *375:A 0.000248962
2 *420:X 0.000248962
3 *375:A *171:20 0
4 *81:22 *375:A 0
*RES
1 *420:X *375:A 42.1527 
*END

*D_NET *161 0.0123676
*CONN
*I *517:TE_B I *D sg13g2_einvn_8
*I *518:Y O *D sg13g2_inv_1
*CAP
1 *517:TE_B 0.000710763
2 *518:Y 0.00138456
3 *161:32 0.0015172
4 *161:24 0.0017281
5 *161:14 0.00230623
6 *517:TE_B *163:6 0
7 *517:TE_B *230:44 0
8 *161:14 *596:A 0
9 *161:14 *185:55 0.000759345
10 *161:14 *214:26 0
11 *161:14 *247:16 0.000919629
12 *161:14 *255:16 0.000241915
13 *161:24 *170:22 0
14 *161:24 *182:48 0.00071049
15 *161:24 *214:18 0.00017924
16 *161:24 *255:16 0
17 *161:32 *182:30 0
18 *161:32 *204:8 0
19 *338:A *161:14 0
20 *511:Z *517:TE_B 0
21 *511:Z *161:32 0.000824104
22 *526:A *517:TE_B 0
23 *529:A *517:TE_B 0
24 *529:A *161:32 0
25 *28:17 *161:32 0
26 *45:6 *161:14 0
27 *62:47 *161:24 0
28 *103:33 *161:24 0.000229428
29 *112:11 *161:24 0
30 *152:12 *161:32 0.000856588
31 *159:13 *517:TE_B 0
*RES
1 *518:Y *161:14 33.559 
2 *161:14 *161:24 48.6829 
3 *161:24 *161:32 48.1782 
4 *161:32 *517:TE_B 26.5096 
*END

*D_NET *162 0.00779053
*CONN
*I *519:TE_B I *D sg13g2_einvn_8
*I *520:Y O *D sg13g2_inv_1
*CAP
1 *519:TE_B 0
2 *520:Y 0
3 *162:20 0.00213277
4 *162:14 0.00361159
5 *162:10 0.00147882
6 *162:6 0
7 *162:20 *182:48 0
8 *162:20 *254:14 0
9 *36:35 *162:20 0
10 *145:32 *162:20 0.000567353
*RES
1 *520:Y *162:6 40 
2 *162:6 *162:10 40 
3 *162:10 *162:14 39.6318 
4 *162:14 *162:20 42.5467 
5 *162:20 *519:TE_B 40 
*END

*D_NET *163 0.00150081
*CONN
*I *530:A I *D sg13g2_inv_8
*I *526:Z O *D sg13g2_einvn_8
*I *529:Z O *D sg13g2_einvn_8
*CAP
1 *530:A 0.000124631
2 *526:Z 0
3 *529:Z 0.000197586
4 *163:6 0.000322217
5 *517:TE_B *163:6 0
6 *526:A *530:A 0.000242098
7 *526:A *163:6 4.79124e-05
8 *529:A *530:A 0.000226642
9 *529:A *163:6 0.000339726
*RES
1 *529:Z *163:6 22.266 
2 *163:6 *526:Z 20 
3 *163:6 *530:A 21.6171 
*END

*D_NET *164 0.00190738
*CONN
*I *524:TE_B I *D sg13g2_einvn_8
*I *525:Y O *D sg13g2_inv_1
*CAP
1 *524:TE_B 0
2 *525:Y 0.000581657
3 *164:10 0.000581657
4 *164:10 *517:A 0.000209899
5 *164:10 *525:A 0.000534168
6 *164:10 *184:30 0
7 *164:10 *251:14 0
8 *499:A *164:10 0
9 *28:17 *164:10 0
*RES
1 *525:Y *164:10 45.8916 
2 *164:10 *524:TE_B 40 
*END

*D_NET *165 0.000903929
*CONN
*I *526:TE_B I *D sg13g2_einvn_8
*I *527:Y O *D sg13g2_inv_1
*CAP
1 *526:TE_B 0.000127554
2 *527:Y 8.21972e-05
3 *165:8 0.000209751
4 *526:TE_B *517:A 0.000242213
5 *499:A *526:TE_B 0.000242213
*RES
1 *527:Y *165:8 40.8446 
2 *165:8 *526:TE_B 41.6171 
*END

*D_NET *166 0.0209071
*CONN
*I *334:A I *D sg13g2_nor2_1
*I *341:A I *D sg13g2_nand3_1
*I *339:A I *D sg13g2_nor2b_1
*I *337:B_N I *D sg13g2_nor2b_1
*I *351:A I *D sg13g2_nand3_1
*I *346:A I *D sg13g2_nand3_1
*I *531:X O *D sg13g2_buf_1
*CAP
1 *334:A 0
2 *341:A 0
3 *339:A 3.04198e-05
4 *337:B_N 3.02213e-05
5 *351:A 2.18538e-05
6 *346:A 0
7 *531:X 0.000190738
8 *166:101 0.000325003
9 *166:86 0.00117003
10 *166:48 0.000321686
11 *166:40 0.00034354
12 *166:38 0.000692129
13 *166:22 0.000763943
14 *166:20 0.000682984
15 *166:16 0.00450282
16 *166:8 0.00323756
17 *337:B_N *183:22 4.77425e-05
18 *339:A *183:22 4.77425e-05
19 *166:8 *229:10 0
20 *166:16 *170:8 0
21 *166:16 *184:8 0.00011101
22 *166:20 *177:60 0.000181608
23 *166:20 *193:10 0.00135628
24 *166:22 *177:60 0.00012816
25 *166:38 *342:B_N 0
26 *166:38 *597:A 0
27 *166:38 *597:TE_B 0
28 *166:38 *177:60 0
29 *166:38 *199:51 0.000241512
30 *166:38 *250:12 0.000285622
31 *166:48 *253:8 0
32 *166:86 *601:TE_B 0
33 *166:86 *249:10 0.000532399
34 *166:101 *334:B 0
35 *166:101 *179:14 0.000442807
36 *363:A *166:86 0
37 *392:A *166:16 0
38 *470:TE_B *166:86 0.000436715
39 *481:A *166:16 0.00185786
40 *535:A *166:16 0
41 *18:19 *166:16 0
42 *31:19 *166:16 8.00842e-05
43 *35:56 *166:16 0
44 *35:56 *166:86 0
45 *36:12 *166:48 0
46 *37:27 *166:38 0.000503098
47 *38:10 *166:38 0.000112426
48 *47:15 *166:20 0
49 *50:11 *166:20 0
50 *53:58 *166:16 0
51 *56:28 *166:16 0
52 *56:37 *166:16 0
53 *56:41 *166:16 0
54 *56:43 *166:16 0
55 *56:48 *166:16 0
56 *63:11 *166:48 0
57 *66:16 *166:101 0.000143673
58 *67:16 *351:A 4.77425e-05
59 *67:16 *166:48 0.000272949
60 *73:10 *166:86 0.000112315
61 *74:16 *166:101 0.000442395
62 *82:36 *166:8 0.00044418
63 *85:8 *351:A 3.23417e-05
64 *85:8 *166:48 0.00030529
65 *95:8 *166:16 0
66 *96:10 *166:16 0
67 *123:25 *166:101 0
68 *126:10 *166:38 0.000284339
69 *127:34 *166:20 0
70 *134:20 *166:16 0.000143864
71 *137:6 *166:16 0
72 *137:15 *166:16 0
*RES
1 *531:X *166:8 42.0806 
2 *166:8 *166:16 49.4745 
3 *166:16 *166:20 29.2494 
4 *166:20 *166:22 0.5974 
5 *166:22 *166:38 48.2194 
6 *166:38 *166:40 20 
7 *166:40 *166:48 43.3887 
8 *166:48 *346:A 20 
9 *166:40 *351:A 20.3193 
10 *166:22 *337:B_N 40.3193 
11 *166:20 *339:A 40.3193 
12 *166:16 *166:86 8.9095 
13 *166:86 *341:A 20 
14 *166:86 *166:101 44.017 
15 *166:101 *334:A 20 
*END

*D_NET *167 0.0183764
*CONN
*I *475:TE_B I *D sg13g2_einvn_8
*I *473:A I *D sg13g2_inv_1
*I *532:X O *D sg13g2_buf_1
*CAP
1 *475:TE_B 0
2 *473:A 0.000272989
3 *532:X 0.000988238
4 *167:47 0.000919646
5 *167:39 0.00100509
6 *167:31 0.000893133
7 *167:27 0.00199053
8 *167:12 0.00156727
9 *167:10 0.00109967
10 *473:A *192:10 0
11 *167:10 *440:A 0.000209438
12 *167:10 *445:TE_B 0
13 *167:10 *467:TE_B 0
14 *167:10 *595:A 0
15 *167:10 *199:43 0
16 *167:10 *254:10 0
17 *167:12 *192:16 0
18 *167:27 *347:A 4.77425e-05
19 *167:27 *597:TE_B 0.000532548
20 *167:27 *199:43 0
21 *167:31 *200:8 0
22 *167:31 *203:8 0
23 *167:39 *177:28 7.51285e-05
24 *167:47 *410:A 0
25 *167:47 *177:16 0.00078734
26 *167:47 *177:20 0.000176997
27 *167:47 *177:80 4.68833e-05
28 *167:47 *196:12 0
29 *472:TE_B *167:47 0.000144216
30 *560:A *167:10 0
31 *27:17 *167:47 0
32 *28:17 *167:47 0
33 *37:12 *167:31 0.00258544
34 *37:27 *167:31 0
35 *39:6 *167:27 0.000370582
36 *39:75 *167:10 0.000370574
37 *52:29 *167:47 0
38 *53:58 *167:47 0
39 *55:6 *167:47 0
40 *55:15 *167:47 0
41 *85:8 *167:27 0.00014391
42 *105:8 *167:10 0
43 *125:16 *167:10 0
44 *126:22 *473:A 0.000304985
45 *126:22 *167:27 0
46 *130:14 *473:A 0.000239977
47 *130:22 *167:31 0.00347593
48 *130:22 *167:39 0.00012816
*RES
1 *532:X *167:10 49.7541 
2 *167:10 *167:12 1.0918 
3 *167:12 *473:A 42.8943 
4 *167:12 *167:27 30.7017 
5 *167:27 *167:31 36.171 
6 *167:31 *167:39 41.1948 
7 *167:39 *167:47 48.3998 
8 *167:47 *475:TE_B 40 
*END

*D_NET *168 0.00956132
*CONN
*I *482:TE_B I *D sg13g2_einvn_8
*I *480:A I *D sg13g2_inv_1
*I *533:X O *D sg13g2_buf_1
*CAP
1 *482:TE_B 0
2 *480:A 0.000168771
3 *533:X 0.00145509
4 *168:18 0.00136338
5 *168:12 0.00264969
6 *480:A *171:20 0
7 *168:12 *407:A 0
8 *168:12 *212:17 0
9 *168:18 *170:47 0.00139763
10 *168:18 *182:48 0
11 *168:18 *183:37 0
12 *168:18 *239:16 0.00202971
13 *465:TE_B *168:12 0
14 *472:A *168:12 0
15 *567:A *168:12 1.54008e-05
16 *567:A *168:18 8.00842e-05
17 *16:9 *168:12 0
18 *73:33 *168:12 0
19 *81:22 *480:A 0
20 *93:8 *168:12 0
21 *126:6 *168:12 0.000321475
22 *126:6 *168:18 8.00842e-05
*RES
1 *533:X *168:12 34.5951 
2 *168:12 *168:18 36.7066 
3 *168:18 *480:A 41.4008 
4 *168:12 *482:TE_B 20 
*END

*D_NET *169 0.0151698
*CONN
*I *490:TE_B I *D sg13g2_einvn_4
*I *488:A I *D sg13g2_inv_1
*I *534:X O *D sg13g2_buf_1
*CAP
1 *490:TE_B 0
2 *488:A 0
3 *534:X 9.70474e-05
4 *169:55 9.50086e-05
5 *169:49 0.00108939
6 *169:41 0.00224107
7 *169:35 0.00138003
8 *169:29 0.00192233
9 *169:14 7.5091e-05
10 *169:8 0.00196112
11 *169:8 *175:14 0
12 *169:8 *197:14 0
13 *169:29 *170:34 0.00038797
14 *169:29 *195:12 0
15 *169:29 *197:14 0
16 *169:29 *218:10 0
17 *169:29 *218:20 0
18 *169:29 *225:16 2.19989e-05
19 *169:41 *194:8 0
20 *169:41 *218:10 0.0031957
21 *169:49 *180:14 0
22 *169:49 *180:24 0
23 *389:A *169:41 0
24 *17:15 *169:41 0
25 *17:19 *169:29 0
26 *23:17 *169:14 0
27 *53:19 *169:41 0
28 *53:19 *169:49 0
29 *56:37 *169:41 0
30 *61:43 *169:29 0
31 *131:28 *169:41 0.00118135
32 *132:15 *169:49 0
33 *136:12 *169:55 0.000231558
34 *142:8 *169:14 7.43655e-05
35 *142:8 *169:29 0
36 *142:12 *169:29 0.000143925
37 *142:20 *169:29 0
38 *144:12 *169:49 0.000896117
39 *147:18 *169:35 0.000175693
40 *155:20 *169:29 0
41 *158:8 *169:35 0
*RES
1 *534:X *169:8 20.8858 
2 *169:8 *169:14 40.8446 
3 *169:14 *488:A 20 
4 *169:8 *169:29 35.7693 
5 *169:29 *169:35 41.1845 
6 *169:35 *169:41 36.5521 
7 *169:41 *169:49 48.5181 
8 *169:49 *169:55 41.0918 
9 *169:55 *490:TE_B 20 
*END

*D_NET *170 0.0198329
*CONN
*I *496:A I *D sg13g2_inv_1
*I *498:TE_B I *D sg13g2_einvn_4
*I *535:X O *D sg13g2_buf_1
*CAP
1 *496:A 0
2 *498:TE_B 0
3 *535:X 0.000146798
4 *170:47 0.000724554
5 *170:34 0.000226748
6 *170:26 0.001465
7 *170:22 0.00441157
8 *170:8 0.00404467
9 *170:22 *172:24 0
10 *170:22 *252:10 0.000697839
11 *170:22 *252:18 0
12 *170:26 *182:30 8.0039e-05
13 *170:26 *184:44 0.0014695
14 *170:34 *218:20 0.000387103
15 *170:47 *182:75 0
16 *170:47 *212:17 0
17 *481:A *170:8 0.000199013
18 *481:A *170:22 0.000304903
19 *511:Z *170:34 0
20 *583:A *170:26 0
21 *20:23 *170:34 0.000207525
22 *20:29 *170:26 0
23 *27:17 *170:47 0
24 *62:47 *170:22 0
25 *68:17 *170:26 0
26 *75:12 *170:8 1.54008e-05
27 *96:10 *170:8 4.77699e-05
28 *131:16 *170:47 0.000176134
29 *138:15 *170:22 0
30 *145:16 *170:22 0.00124566
31 *149:15 *170:22 0
32 *152:12 *170:26 0.00214957
33 *156:18 *170:22 4.7531e-05
34 *161:24 *170:22 0
35 *166:16 *170:8 0
36 *168:18 *170:47 0.00139763
37 *169:29 *170:34 0.00038797
*RES
1 *535:X *170:8 21.5347 
2 *170:8 *170:22 49.0769 
3 *170:22 *170:26 34.3788 
4 *170:26 *170:34 43.2342 
5 *170:34 *498:TE_B 20 
6 *170:8 *170:47 47.7147 
7 *170:47 *496:A 20 
*END

*D_NET *171 0.0199306
*CONN
*I *504:A I *D sg13g2_inv_1
*I *506:TE_B I *D sg13g2_einvn_4
*I *536:X O *D sg13g2_buf_1
*CAP
1 *504:A 5.77966e-05
2 *506:TE_B 0.000407827
3 *536:X 5.74306e-05
4 *171:33 0.000897823
5 *171:20 0.00313553
6 *171:18 0.00388902
7 *171:8 0.00205877
8 *171:8 *172:8 4.77699e-05
9 *171:18 *177:60 0
10 *171:18 *182:20 0
11 *171:18 *183:22 0
12 *171:18 *185:55 0
13 *171:18 *242:142 0.000234726
14 *171:18 *247:24 0.000395811
15 *171:20 *601:Z 0
16 *171:20 *602:Z 0
17 *171:20 *177:54 0
18 *171:20 *183:22 0
19 *171:20 *193:10 0
20 *171:33 *211:15 0
21 *370:A *171:20 0
22 *375:A *171:20 0
23 *419:A *171:20 0
24 *435:A *171:20 0
25 *480:A *171:20 0
26 *587:A *171:8 0
27 *592:A *504:A 0
28 *17:9 *504:A 0
29 *45:13 *171:18 0
30 *45:15 *171:18 0
31 *47:15 *171:18 0
32 *68:23 *171:8 0
33 *74:16 *171:20 0
34 *81:22 *171:20 0
35 *94:24 *171:33 0
36 *94:28 *504:A 0
37 *111:25 *171:18 0.000918844
38 *134:12 *506:TE_B 0.000468007
39 *134:12 *171:20 0.00113109
40 *136:12 *171:33 0.00261002
41 *148:51 *506:TE_B 0
42 *148:51 *171:20 0
43 *151:12 *171:33 0.00362012
*RES
1 *536:X *171:8 40.5356 
2 *171:8 *171:18 38.643 
3 *171:18 *171:20 17.407 
4 *171:20 *506:TE_B 23.914 
5 *171:20 *171:33 36.9126 
6 *171:33 *504:A 40.5356 
*END

*D_NET *172 0.0202736
*CONN
*I *512:A I *D sg13g2_inv_1
*I *514:TE_B I *D sg13g2_einvn_4
*I *537:X O *D sg13g2_buf_1
*CAP
1 *512:A 0
2 *514:TE_B 0
3 *537:X 0.000206657
4 *172:79 0.00176996
5 *172:64 0.00243075
6 *172:38 0.00551271
7 *172:32 0.00161322
8 *172:24 0.00117852
9 *172:16 0.00103396
10 *172:8 0.000363318
11 *172:8 *230:44 0
12 *172:16 *453:TE_B 0
13 *172:24 *453:TE_B 0.000597664
14 *172:24 *182:30 0
15 *172:24 *244:20 0.000177216
16 *172:24 *252:10 0
17 *172:32 *251:8 0
18 *172:38 *182:40 0
19 *172:38 *184:22 0.000808548
20 *172:38 *251:14 0
21 *172:38 *252:18 0.00133477
22 *172:64 *505:TE_B 0
23 *172:64 *604:A 0
24 *172:64 *195:20 8.00842e-05
25 *172:64 *222:6 0
26 *172:64 *222:17 0
27 *172:64 *252:18 0
28 *172:79 *177:8 0.000125963
29 *172:79 *177:16 0
30 *172:79 *180:10 0
31 *172:79 *196:12 0
32 *172:79 *251:14 0
33 *345:A *172:32 0
34 *397:A *172:64 0
35 *529:A *172:24 0
36 *587:A *172:8 0
37 *19:13 *172:16 0.000115236
38 *27:17 *172:79 0
39 *29:13 *172:16 0
40 *38:45 *172:24 0
41 *59:6 *172:64 0
42 *59:11 *172:64 0
43 *60:15 *172:64 0
44 *63:22 *172:64 0
45 *68:17 *172:32 0.00040286
46 *68:23 *172:8 0
47 *86:16 *172:24 0
48 *98:12 *172:64 0
49 *101:8 *172:38 0
50 *103:8 *172:38 2.21831e-05
51 *111:8 *172:24 0
52 *111:25 *172:24 0
53 *145:16 *172:38 0.00102921
54 *145:16 *172:79 0.00142297
55 *147:18 *172:64 0
56 *170:22 *172:24 0
57 *171:8 *172:8 4.77699e-05
*RES
1 *537:X *172:8 41.8334 
2 *172:8 *172:16 41.3493 
3 *172:16 *172:24 48.3327 
4 *172:24 *172:32 43.2342 
5 *172:32 *172:38 15.6045 
6 *172:38 *172:64 41.8196 
7 *172:64 *514:TE_B 20 
8 *172:38 *172:79 37.9632 
9 *172:79 *512:A 20 
*END

*D_NET *173 0.00352674
*CONN
*I *464:A I *D sg13g2_inv_1
*I *467:TE_B I *D sg13g2_einvn_8
*I *538:X O *D sg13g2_buf_1
*CAP
1 *464:A 0
2 *467:TE_B 0.000213189
3 *538:X 0.000108973
4 *173:14 0.00113683
5 *173:6 0.00103262
6 *173:6 *233:8 0
7 *173:6 *233:14 0
8 *173:6 *234:37 0.000177299
9 *173:14 *220:14 0
10 *173:14 *233:14 0
11 *440:TE_B *173:6 0.0001943
12 *440:TE_B *173:14 0.000663536
13 *122:25 *173:14 0
14 *125:16 *467:TE_B 0
15 *125:16 *173:14 0
16 *167:10 *467:TE_B 0
*RES
1 *538:X *173:6 21.4008 
2 *173:6 *173:14 49.7232 
3 *173:14 *467:TE_B 21.8334 
4 *173:6 *464:A 20 
*END

*D_NET *174 0.0220928
*CONN
*I *522:TE_B I *D sg13g2_einvn_4
*I *520:A I *D sg13g2_inv_1
*I *539:X O *D sg13g2_buf_1
*CAP
1 *522:TE_B 0
2 *520:A 0
3 *539:X 0
4 *174:30 6.03734e-05
5 *174:24 0.00151876
6 *174:18 0.00145839
7 *174:14 0.000774744
8 *174:10 0.00509307
9 *174:8 0.00431832
10 *174:6 0
11 *174:10 *184:73 0.00360164
12 *586:A *174:30 0
13 *22:13 *174:10 0
14 *54:35 *174:30 0
15 *97:24 *174:14 0.00187992
16 *143:21 *174:14 0
17 *144:12 *174:24 0
18 *150:22 *174:24 0.00338762
19 *155:14 *174:10 0
20 *155:20 *174:10 0
*RES
1 *539:X *174:6 40 
2 *174:6 *174:8 20 
3 *174:8 *174:10 44.4445 
4 *174:10 *174:14 28.755 
5 *174:14 *174:18 40 
6 *174:18 *174:24 41.8978 
7 *174:24 *174:30 40.5356 
8 *174:30 *520:A 20 
9 *174:14 *522:TE_B 40 
*END

*D_NET *175 0.00388681
*CONN
*I *527:A I *D sg13g2_inv_1
*I *529:TE_B I *D sg13g2_einvn_8
*I *540:X O *D sg13g2_buf_1
*CAP
1 *527:A 0
2 *529:TE_B 0
3 *540:X 0.00116431
4 *175:20 6.35654e-05
5 *175:14 0.00122788
6 *175:14 *486:A 0.000112791
7 *175:14 *517:A 0.000273403
8 *175:14 *197:14 0
9 *175:14 *218:24 0
10 *499:A *175:14 0.000224813
11 *23:17 *175:14 0
12 *28:35 *175:14 0.000208587
13 *30:15 *175:14 0
14 *140:10 *175:14 0.000338135
15 *142:12 *175:14 0.000273331
16 *169:8 *175:14 0
*RES
1 *540:X *175:14 32.0407 
2 *175:14 *175:20 40.5974 
3 *175:20 *529:TE_B 20 
4 *175:14 *527:A 20 
*END

*D_NET *176 0.00739839
*CONN
*I *453:TE_B I *D sg13g2_einvn_4
*I *451:A I *D sg13g2_inv_1
*I *541:X O *D sg13g2_buf_1
*CAP
1 *453:TE_B 0.000581545
2 *451:A 0
3 *541:X 4.94242e-05
4 *176:14 0.000581545
5 *176:12 0.00137062
6 *176:8 0.00142005
7 *453:TE_B *182:30 0.000597664
8 *453:TE_B *218:34 0
9 *176:8 *221:16 0
10 *176:8 *232:35 0
11 *20:39 *176:12 0
12 *24:9 *176:12 0.00207199
13 *37:27 *453:TE_B 0
14 *116:8 *453:TE_B 0.000127878
15 *172:16 *453:TE_B 0
16 *172:24 *453:TE_B 0.000597664
*RES
1 *541:X *176:8 40.3502 
2 *176:8 *176:12 36.9744 
3 *176:12 *176:14 20 
4 *176:14 *451:A 40 
5 *176:14 *453:TE_B 46.5714 
*END

*D_NET *177 0.0171
*CONN
*I *334:B I *D sg13g2_nor2_1
*I *341:B I *D sg13g2_nand3_1
*I *339:B_N I *D sg13g2_nor2b_1
*I *337:A I *D sg13g2_nor2b_1
*I *351:B I *D sg13g2_nand3_1
*I *346:B I *D sg13g2_nand3_1
*I *542:X O *D sg13g2_buf_1
*CAP
1 *334:B 0.000211528
2 *341:B 0
3 *339:B_N 0
4 *337:A 0
5 *351:B 4.79104e-05
6 *346:B 0.000412803
7 *542:X 0.000325435
8 *177:86 0.000253635
9 *177:80 0.00165392
10 *177:60 0.000158088
11 *177:54 0.000585576
12 *177:30 0.000906851
13 *177:28 0.00168477
14 *177:20 0.00211752
15 *177:16 0.000709992
16 *177:8 0.000917804
17 *346:B *605:A 0
18 *346:B *607:A 0
19 *177:8 *196:12 0
20 *177:28 *248:8 0.00124112
21 *177:54 *183:22 0
22 *177:60 *247:24 0
23 *177:86 *179:14 0
24 *340:B *177:80 2.16652e-05
25 *346:C *346:B 0.000240749
26 *360:A *334:B 0
27 *362:A *177:80 0
28 *385:A *177:80 0
29 *35:46 *177:86 0
30 *35:56 *177:80 0
31 *37:6 *177:54 0
32 *37:12 *177:54 0
33 *38:31 *346:B 0.000112426
34 *39:6 *351:B 8.00842e-05
35 *39:16 *346:B 0
36 *39:16 *351:B 1.54008e-05
37 *49:19 *334:B 0
38 *49:19 *177:80 0
39 *51:6 *177:80 0
40 *51:15 *177:80 0
41 *53:58 *177:20 0
42 *85:8 *351:B 8.00842e-05
43 *96:12 *177:16 0
44 *125:20 *177:86 0
45 *126:10 *177:16 0
46 *126:22 *346:B 0
47 *127:50 *177:80 0
48 *130:22 *346:B 0.000233917
49 *130:22 *177:28 0.00248143
50 *130:22 *177:30 0.00108523
51 *131:16 *177:16 0
52 *145:16 *177:8 0
53 *166:20 *177:60 0.000181608
54 *166:22 *177:60 0.00012816
55 *166:38 *177:60 0
56 *166:101 *334:B 0
57 *167:39 *177:28 7.51285e-05
58 *167:47 *177:16 0.00078734
59 *167:47 *177:20 0.000176997
60 *167:47 *177:80 4.68833e-05
61 *171:18 *177:60 0
62 *171:20 *177:54 0
63 *172:79 *177:8 0.000125963
64 *172:79 *177:16 0
*RES
1 *542:X *177:8 42.8222 
2 *177:8 *177:16 45.8916 
3 *177:16 *177:20 21.1845 
4 *177:20 *177:28 32.3909 
5 *177:28 *177:30 5.047 
6 *177:30 *346:B 44.0376 
7 *177:30 *351:B 40.5356 
8 *177:28 *177:54 23.5638 
9 *177:54 *177:60 42.0806 
10 *177:60 *337:A 20 
11 *177:54 *339:B_N 20 
12 *177:20 *177:80 12.4471 
13 *177:80 *177:86 42.0806 
14 *177:86 *341:B 20 
15 *177:80 *334:B 21.8334 
*END

*D_NET *178 0.00388676
*CONN
*I *459:A I *D sg13g2_inv_1
*I *461:TE_B I *D sg13g2_einvn_4
*I *543:X O *D sg13g2_buf_1
*CAP
1 *459:A 0.000121817
2 *461:TE_B 0.000282841
3 *543:X 0.00113391
4 *178:12 0.00129494
5 *459:A *232:35 0
6 *178:12 *449:A 0.000391264
7 *178:12 *559:A 0.000177415
8 *178:12 *205:8 0
9 *454:A *461:TE_B 0.000339583
10 *456:TE_B *178:12 0
11 *458:TE_B *461:TE_B 0
12 *25:11 *178:12 0
13 *89:16 *178:12 0
14 *121:10 *459:A 0.000144985
*RES
1 *543:X *178:12 49.3627 
2 *178:12 *461:TE_B 43.2342 
3 *543:X *459:A 41.4008 
*END

*D_NET *179 0.00557755
*CONN
*I *474:TE_B I *D sg13g2_einvn_8
*I *471:A I *D sg13g2_inv_1
*I *544:X O *D sg13g2_buf_1
*CAP
1 *474:TE_B 0.000535496
2 *471:A 0
3 *544:X 0.00100498
4 *179:14 0.00120443
5 *179:8 0.00167392
6 *179:14 *209:19 0
7 *26:11 *179:8 0
8 *35:46 *179:14 0.000715908
9 *49:8 *179:8 0
10 *49:13 *179:14 0
11 *74:10 *179:8 0
12 *74:16 *179:14 0
13 *93:8 *474:TE_B 0
14 *93:8 *179:8 0
15 *123:55 *474:TE_B 0
16 *166:101 *179:14 0.000442807
17 *177:86 *179:14 0
*RES
1 *544:X *179:8 44.6453 
2 *179:8 *179:14 31.9789 
3 *179:14 *471:A 20 
4 *544:X *474:TE_B 45.8607 
*END

*D_NET *180 0.00387602
*CONN
*I *478:A I *D sg13g2_inv_1
*I *481:TE_B I *D sg13g2_einvn_8
*I *545:X O *D sg13g2_buf_1
*CAP
1 *478:A 0
2 *481:TE_B 0
3 *545:X 0.000252063
4 *180:35 4.4454e-05
5 *180:24 0.000564369
6 *180:14 0.00164804
7 *180:10 0.00129128
8 *180:10 *196:12 0
9 *180:14 *208:19 0
10 *180:24 *208:19 0
11 *180:24 *218:10 7.5823e-05
12 *389:A *180:24 0
13 *53:19 *180:24 0
14 *54:35 *180:24 0
15 *144:12 *180:14 0
16 *144:12 *180:24 0
17 *169:49 *180:14 0
18 *169:49 *180:24 0
19 *172:79 *180:10 0
*RES
1 *545:X *180:10 41.8746 
2 *180:10 *180:14 29.6202 
3 *180:14 *180:24 44.4496 
4 *180:24 *481:TE_B 20 
5 *180:14 *180:35 40.3502 
6 *180:35 *478:A 20 
*END

*D_NET *181 0.0093207
*CONN
*I *486:A I *D sg13g2_inv_1
*I *489:TE_B I *D sg13g2_einvn_8
*I *546:X O *D sg13g2_buf_1
*CAP
1 *486:A 0.000172351
2 *489:TE_B 0
3 *546:X 0.000172351
4 *181:18 8.3812e-05
5 *181:12 0.00296496
6 *181:6 0.00288115
7 *181:12 *497:A 0.000208807
8 *181:12 *505:A 0
9 *181:12 *184:44 0
10 *181:12 *198:12 0.00236375
11 *181:18 *194:8 0
12 *371:A *181:12 0
13 *487:A *181:12 0
14 *546:A *181:12 0
15 *20:17 *181:12 0
16 *28:35 *486:A 0
17 *30:9 *181:12 0
18 *57:13 *181:12 0
19 *79:6 *181:12 0
20 *79:16 *181:12 0
21 *80:14 *181:12 0
22 *131:28 *181:12 1.53561e-05
23 *131:28 *181:18 0.000233555
24 *139:8 *486:A 0.000111828
25 *139:14 *181:12 0
26 *143:32 *181:12 0
27 *143:43 *181:12 0
28 *144:20 *181:12 0
29 *152:8 *181:12 0
30 *153:12 *181:12 0
31 *175:14 *486:A 0.000112791
*RES
1 *546:X *181:6 40 
2 *181:6 *181:12 48.5353 
3 *181:12 *181:18 41.0918 
4 *181:18 *489:TE_B 20 
5 *546:X *486:A 41.751 
*END

*D_NET *182 0.0215778
*CONN
*I *494:A I *D sg13g2_inv_1
*I *497:TE_B I *D sg13g2_einvn_8
*I *547:X O *D sg13g2_buf_1
*CAP
1 *494:A 3.34444e-05
2 *497:TE_B 0
3 *547:X 0.000651661
4 *182:75 0.000890617
5 *182:56 0
6 *182:52 0.00191729
7 *182:48 0.00546049
8 *182:40 0.00325145
9 *182:30 0.00151536
10 *182:20 0.0016016
11 *182:20 *183:12 0
12 *182:20 *230:44 0
13 *182:40 *252:10 0.0006986
14 *453:TE_B *182:30 0.000597664
15 *529:A *182:30 0
16 *27:17 *494:A 4.77425e-05
17 *31:13 *182:52 0.00277806
18 *36:12 *182:48 0
19 *37:35 *182:30 0.000403384
20 *62:47 *182:40 0
21 *62:47 *182:48 0
22 *68:17 *182:30 0.000660619
23 *68:23 *182:30 0
24 *83:18 *182:48 0
25 *83:18 *182:75 0
26 *111:25 *182:20 0
27 *111:25 *182:30 0
28 *144:8 *182:75 0.000279312
29 *150:14 *182:52 0
30 *156:12 *182:75 0
31 *156:18 *182:48 0
32 *156:18 *182:75 0
33 *161:24 *182:48 0.00071049
34 *161:32 *182:30 0
35 *162:20 *182:48 0
36 *168:18 *182:48 0
37 *170:26 *182:30 8.0039e-05
38 *170:47 *182:75 0
39 *171:18 *182:20 0
40 *172:24 *182:30 0
41 *172:38 *182:40 0
*RES
1 *547:X *182:20 45.8813 
2 *182:20 *182:30 30.1764 
3 *182:30 *182:40 45.0676 
4 *182:40 *182:48 43.0205 
5 *182:48 *182:52 38.4885 
6 *182:52 *182:56 40 
7 *182:56 *497:TE_B 20 
8 *182:48 *182:75 47.004 
9 *182:75 *494:A 40.3193 
*END

*D_NET *183 0.0171673
*CONN
*I *502:A I *D sg13g2_inv_1
*I *505:TE_B I *D sg13g2_einvn_8
*I *548:X O *D sg13g2_buf_1
*CAP
1 *502:A 0.000120441
2 *505:TE_B 0.00236588
3 *548:X 0.000722398
4 *183:37 0.000809149
5 *183:22 0.00524815
6 *183:12 0.00291596
7 *505:TE_B *604:A 0.000403296
8 *505:TE_B *211:15 0
9 *505:TE_B *252:18 0
10 *183:12 *333:A 7.94462e-05
11 *183:12 *224:23 0
12 *183:12 *246:12 8.0185e-05
13 *183:22 *185:55 0
14 *183:22 *188:42 0
15 *183:22 *247:24 0
16 *183:37 *184:14 0.002047
17 *183:37 *239:16 0
18 *337:B_N *183:22 4.77425e-05
19 *339:A *183:22 4.77425e-05
20 *369:A *505:TE_B 0
21 *36:10 *183:22 0
22 *37:6 *183:22 3.23694e-05
23 *37:12 *183:22 0.000144284
24 *44:51 *183:22 0
25 *59:6 *505:TE_B 0
26 *59:11 *505:TE_B 0
27 *60:31 *505:TE_B 0
28 *60:44 *505:TE_B 0
29 *63:22 *505:TE_B 0
30 *67:10 *505:TE_B 0
31 *74:16 *183:22 0
32 *75:31 *183:37 0
33 *81:22 *505:TE_B 0.00121
34 *81:22 *183:22 0.000434019
35 *89:8 *183:12 0
36 *95:8 *502:A 0.00017625
37 *111:25 *183:12 0
38 *111:25 *183:22 0
39 *126:10 *183:37 0
40 *134:12 *505:TE_B 0
41 *140:16 *505:TE_B 0
42 *148:35 *505:TE_B 0
43 *150:10 *183:37 0.000282989
44 *151:12 *505:TE_B 0
45 *159:73 *505:TE_B 0
46 *168:18 *183:37 0
47 *171:18 *183:22 0
48 *171:20 *183:22 0
49 *172:64 *505:TE_B 0
50 *177:54 *183:22 0
51 *182:20 *183:12 0
*RES
1 *548:X *183:12 46.3963 
2 *183:12 *183:22 41.3313 
3 *183:22 *505:TE_B 43.3295 
4 *183:22 *183:37 30.4854 
5 *183:37 *502:A 41.1845 
*END

*D_NET *184 0.0336931
*CONN
*I *510:A I *D sg13g2_inv_1
*I *513:TE_B I *D sg13g2_einvn_8
*I *549:X O *D sg13g2_buf_1
*CAP
1 *510:A 0
2 *513:TE_B 3.78077e-05
3 *549:X 6.75413e-05
4 *184:73 0.00214318
5 *184:67 0.00240327
6 *184:61 0.000634857
7 *184:44 0.0015011
8 *184:30 0.00191334
9 *184:22 0.0011861
10 *184:14 0.00316951
11 *184:8 0.00212623
12 *184:14 *185:41 0.000127212
13 *184:14 *250:12 0
14 *184:22 *251:14 0
15 *184:30 *251:14 0
16 *184:44 *197:14 0
17 *184:44 *201:8 0.000335499
18 *184:67 *255:16 0.000545095
19 *498:A *184:44 0.00024188
20 *526:A *184:30 0.00040424
21 *529:A *184:30 0.000436696
22 *20:29 *184:44 0.00114777
23 *22:13 *184:73 0.00366651
24 *28:17 *184:30 0
25 *36:12 *184:14 0
26 *36:35 *184:14 0.00107784
27 *36:35 *184:67 0
28 *38:10 *184:14 0.00076041
29 *62:47 *184:61 0
30 *96:10 *184:8 0.00011101
31 *103:8 *184:22 0.000756896
32 *103:33 *184:30 3.23417e-05
33 *121:10 *184:73 0
34 *152:12 *184:44 0.000208037
35 *153:12 *184:44 0.000282775
36 *153:25 *184:44 0.00033826
37 *155:14 *184:73 0
38 *158:35 *184:22 0
39 *164:10 *184:30 0
40 *166:16 *184:8 0.00011101
41 *170:26 *184:44 0.0014695
42 *172:38 *184:22 0.000808548
43 *174:10 *184:73 0.00360164
44 *181:12 *184:44 0
45 *183:37 *184:14 0.002047
*RES
1 *549:X *184:8 40.7519 
2 *184:8 *184:14 41.3725 
3 *184:14 *184:22 48.0237 
4 *184:22 *184:30 44.5011 
5 *184:30 *184:44 37.304 
6 *184:44 *513:TE_B 40.3193 
7 *184:14 *184:61 42.369 
8 *184:61 *184:67 42.575 
9 *184:67 *184:73 47.1199 
10 *184:73 *510:A 40 
*END

*D_NET *185 0.0103973
*CONN
*I *518:A I *D sg13g2_inv_1
*I *521:TE_B I *D sg13g2_einvn_8
*I *550:X O *D sg13g2_buf_1
*CAP
1 *518:A 0
2 *521:TE_B 0
3 *550:X 0
4 *185:55 0.00106172
5 *185:47 0.00145358
6 *185:41 0.000792886
7 *185:28 0.000966042
8 *185:20 0.00231303
9 *185:4 0.00174802
10 *185:20 *524:A 8.03692e-05
11 *185:20 *606:A 0
12 *185:20 *214:18 0
13 *185:20 *230:44 0
14 *185:20 *242:14 0
15 *185:20 *242:16 0
16 *185:28 *606:A 0.000458783
17 *185:28 *225:16 0
18 *185:41 *250:12 0.000127098
19 *185:55 *598:A 0
20 *382:A *185:55 0
21 *454:A *185:47 4.77425e-05
22 *495:A *185:28 1.54008e-05
23 *513:A *185:28 0
24 *516:A *185:28 0
25 *524:Z *185:20 0
26 *588:A *185:28 0.000225165
27 *28:17 *185:20 0
28 *34:30 *185:55 0
29 *34:36 *185:41 0.000146447
30 *38:45 *185:20 0
31 *39:16 *185:41 0
32 *44:21 *185:41 0
33 *44:51 *185:41 0
34 *45:51 *185:20 0
35 *45:51 *185:47 0
36 *46:21 *185:55 0
37 *62:10 *185:28 0
38 *70:14 *185:47 0
39 *111:25 *185:55 7.45103e-05
40 *112:23 *185:20 0
41 *119:33 *185:55 0
42 *157:8 *185:28 0
43 *161:14 *185:55 0.000759345
44 *171:18 *185:55 0
45 *183:22 *185:55 0
46 *184:14 *185:41 0.000127212
*RES
1 *550:X *185:4 20 
2 *185:4 *185:20 31.7523 
3 *185:20 *185:28 27.1254 
4 *185:28 *521:TE_B 20 
5 *185:4 *185:41 43.9449 
6 *185:41 *185:47 43.5638 
7 *185:47 *185:55 49.2906 
8 *185:55 *518:A 20 
*END

*D_NET *186 0.00687234
*CONN
*I *528:TE_B I *D sg13g2_einvn_8
*I *525:A I *D sg13g2_inv_1
*I *551:X O *D sg13g2_buf_1
*CAP
1 *528:TE_B 0
2 *525:A 0.00080305
3 *551:X 0.000764706
4 *186:26 0.00156776
5 *525:A *517:A 0
6 *525:A *218:24 0.00115538
7 *525:A *251:8 0.000436725
8 *186:26 *218:24 0
9 *186:26 *218:34 0.000537995
10 *344:A *525:A 0.000273592
11 *344:A *186:26 0.000240596
12 *344:B *525:A 0.000268616
13 *344:B *186:26 9.72278e-05
14 *349:A *186:26 9.69079e-05
15 *349:B *186:26 0
16 *450:TE_B *186:26 4.77425e-05
17 *8:25 *186:26 4.78772e-05
18 *20:29 *525:A 0
19 *30:15 *186:26 0
20 *33:13 *186:26 0
21 *164:10 *525:A 0.000534168
*RES
1 *551:X *186:26 29.2391 
2 *186:26 *525:A 30.2845 
3 *186:26 *528:TE_B 20 
*END

*D_NET *187 0.00282805
*CONN
*I *559:A I *D sg13g2_buf_1
*I *608:X O *D sg13g2_buf_16
*CAP
1 *559:A 0.000760306
2 *608:X 0.000760306
3 *456:TE_B *559:A 0
4 *25:11 *559:A 0.000241567
5 *68:23 *559:A 0.000888455
6 *89:16 *559:A 0
7 *178:12 *559:A 0.000177415
*RES
1 *608:X *559:A 48.5902 
*END

*D_NET *188 0.0154483
*CONN
*I *342:B_N I *D sg13g2_nor2b_1
*I *347:A I *D sg13g2_nor2b_1
*I *335:A I *D sg13g2_nor2_1
*I *333:A I *D sg13g2_nand2_1
*I *552:X O *D sg13g2_buf_1
*CAP
1 *342:B_N 0.000305493
2 *347:A 0.000194313
3 *335:A 4.00302e-05
4 *333:A 0.000843132
5 *552:X 0.000284526
6 *188:44 0.000499806
7 *188:42 0.00112296
8 *188:27 0.00243859
9 *188:8 0.00240326
10 *333:A *246:12 0.000419952
11 *335:A *192:10 4.77425e-05
12 *342:B_N *199:51 7.51285e-05
13 *342:B_N *247:24 0
14 *347:A *199:51 0.00023464
15 *188:27 *199:29 0
16 *188:27 *224:29 0
17 *188:27 *243:10 0.000234224
18 *188:27 *254:10 0
19 *188:42 *199:51 4.77425e-05
20 *188:42 *231:19 0
21 *188:42 *243:10 0.000424342
22 *188:42 *247:24 0
23 *359:A *188:42 0
24 *381:A *188:42 0
25 *8:25 *333:A 0.00112263
26 *9:15 *333:A 0
27 *25:11 *188:8 0.000531729
28 *36:10 *342:B_N 0.000241512
29 *37:27 *347:A 0
30 *39:69 *347:A 2.20966e-05
31 *39:75 *188:42 0.00172498
32 *47:15 *188:42 0
33 *68:23 *188:8 0.000531613
34 *90:8 *188:27 0.00133872
35 *115:20 *333:A 0.00014415
36 *125:16 *188:42 0
37 *126:22 *347:A 4.78578e-05
38 *166:38 *342:B_N 0
39 *167:27 *347:A 4.77425e-05
40 *183:12 *333:A 7.94462e-05
41 *183:22 *188:42 0
*RES
1 *552:X *188:8 43.5638 
2 *188:8 *333:A 49.1876 
3 *188:8 *188:27 12.5351 
4 *188:27 *335:A 40.3193 
5 *188:27 *188:42 33.1222 
6 *188:42 *188:44 20 
7 *188:44 *347:A 42.1527 
8 *188:44 *342:B_N 43.1415 
*END

*D_NET *189 0.00160921
*CONN
*I *440:A I *D sg13g2_einvn_8
*I *446:Y O *D sg13g2_inv_8
*CAP
1 *440:A 0.000676002
2 *446:Y 0.000676002
3 *440:A *227:8 0
4 *440:A *233:14 0
5 *442:TE_B *440:A 0
6 *446:A *440:A 4.77702e-05
7 *532:A *440:A 0
8 *106:6 *440:A 0
9 *106:15 *440:A 0
10 *167:10 *440:A 0.000209438
*RES
1 *446:Y *440:A 46.9628 
*END

*D_NET *190 0.00053723
*CONN
*I *599:A I *D sg13g2_ebufn_8
*I *564:Y O *D sg13g2_inv_4
*CAP
1 *599:A 0.000148494
2 *564:Y 0.000148494
3 *599:A *595:Z 0
4 *599:A *247:24 0.000240243
*RES
1 *564:Y *599:A 41.6171 
*END

*D_NET *191 0.00585965
*CONN
*I *463:A I *D sg13g2_einvn_8
*I *469:Y O *D sg13g2_inv_8
*CAP
1 *463:A 0
2 *469:Y 0.000261014
3 *191:14 0.0023704
4 *191:8 0.00263142
5 *191:8 *210:20 0.000144985
6 *191:8 *210:37 0.000306984
7 *191:14 *210:8 0
8 *191:14 *234:37 0
9 *191:14 *234:43 0
10 *440:TE_B *191:8 0
11 *461:A *191:8 0.000144842
12 *463:Z *191:14 0
13 *10:11 *191:14 0
14 *21:9 *191:14 0
15 *41:33 *191:14 0
16 *87:17 *191:14 0
17 *124:12 *191:14 0
18 *125:10 *191:8 0
*RES
1 *469:Y *191:8 42.9149 
2 *191:8 *191:14 45.3586 
3 *191:14 *463:A 20 
*END

*D_NET *192 0.00451223
*CONN
*I *470:A I *D sg13g2_einvn_8
*I *476:Y O *D sg13g2_inv_8
*CAP
1 *470:A 0
2 *476:Y 0.000561797
3 *192:16 0.00143289
4 *192:10 0.00199469
5 *192:10 *199:41 0
6 *192:10 *242:127 0
7 *192:16 *600:TE_B 0
8 *192:16 *242:82 0
9 *335:A *192:10 4.77425e-05
10 *470:Z *192:16 0
11 *473:A *192:10 0
12 *34:22 *192:10 0
13 *35:6 *192:10 0
14 *35:10 *192:10 0
15 *35:46 *192:16 0
16 *69:8 *192:16 0
17 *72:10 *192:16 0
18 *74:16 *192:16 0
19 *125:20 *192:16 0
20 *126:22 *192:10 7.46854e-05
21 *130:14 *192:10 0.000400418
22 *167:12 *192:16 0
*RES
1 *476:Y *192:10 45.4899 
2 *192:10 *192:16 34.3582 
3 *192:16 *470:A 20 
*END

*D_NET *193 0.00228006
*CONN
*I *601:A I *D sg13g2_ebufn_8
*I *566:Y O *D sg13g2_inv_4
*CAP
1 *601:A 0
2 *566:Y 0.000454186
3 *193:10 0.000454186
4 *193:10 *601:Z 0
5 *74:16 *193:10 1.54008e-05
6 *127:34 *193:10 0
7 *166:20 *193:10 0.00135628
8 *171:20 *193:10 0
*RES
1 *566:Y *193:10 47.0349 
2 *193:10 *601:A 40 
*END

*D_NET *194 0.0045209
*CONN
*I *477:A I *D sg13g2_einvn_8
*I *483:Y O *D sg13g2_inv_8
*CAP
1 *477:A 0.000382599
2 *483:Y 0.000807222
3 *194:8 0.00118982
4 *477:Z *477:A 0
5 *17:15 *194:8 0.00214126
6 *54:35 *477:A 0
7 *131:28 *194:8 0
8 *132:41 *477:A 0
9 *134:28 *477:A 0
10 *134:28 *194:8 0
11 *169:41 *194:8 0
12 *181:18 *194:8 0
*RES
1 *483:Y *194:8 49.991 
2 *194:8 *477:A 43.3475 
*END

*D_NET *195 0.00537431
*CONN
*I *485:A I *D sg13g2_einvn_8
*I *491:Y O *D sg13g2_inv_8
*CAP
1 *485:A 0
2 *491:Y 0
3 *195:20 0.000150901
4 *195:12 0.00176677
5 *195:6 0.00161587
6 *195:20 *222:17 0
7 *61:43 *195:20 0
8 *137:21 *195:20 0
9 *140:16 *195:12 0
10 *140:16 *195:20 0
11 *142:20 *195:12 0.00176068
12 *169:29 *195:12 0
13 *172:64 *195:20 8.00842e-05
*RES
1 *491:Y *195:6 40 
2 *195:6 *195:12 35.2852 
3 *195:12 *195:20 41.3802 
4 *195:20 *485:A 20 
*END

*D_NET *196 0.0027052
*CONN
*I *603:A I *D sg13g2_ebufn_8
*I *568:Y O *D sg13g2_inv_4
*CAP
1 *603:A 0
2 *568:Y 0
3 *196:12 0.0013526
4 *196:6 0.0013526
5 *196:12 *251:14 0
6 *418:A *196:12 0
7 *7:13 *196:12 0
8 *28:17 *196:12 0
9 *58:17 *196:12 0
10 *98:12 *196:12 0
11 *137:61 *196:12 0
12 *167:47 *196:12 0
13 *172:79 *196:12 0
14 *177:8 *196:12 0
15 *180:10 *196:12 0
*RES
1 *568:Y *196:6 40 
2 *196:6 *196:12 32.6278 
3 *196:12 *603:A 20 
*END

*D_NET *197 0.0057674
*CONN
*I *493:A I *D sg13g2_einvn_8
*I *499:Y O *D sg13g2_inv_8
*CAP
1 *493:A 0
2 *499:Y 0.00174498
3 *197:14 0.00174498
4 *491:A *197:14 0.000304362
5 *493:Z *197:14 0
6 *498:A *197:14 8.95704e-05
7 *499:A *197:14 0.000923176
8 *20:29 *197:14 0
9 *23:17 *197:14 0.000102554
10 *28:25 *197:14 0.000857778
11 *142:12 *197:14 0
12 *152:12 *197:14 0
13 *153:25 *197:14 0
14 *169:8 *197:14 0
15 *169:29 *197:14 0
16 *175:14 *197:14 0
17 *184:44 *197:14 0
*RES
1 *499:Y *197:14 38.3443 
2 *197:14 *493:A 20 
*END

*D_NET *198 0.00535335
*CONN
*I *501:A I *D sg13g2_einvn_8
*I *507:Y O *D sg13g2_inv_8
*CAP
1 *501:A 0
2 *507:Y 0
3 *198:12 0.000977444
4 *198:6 0.000977444
5 *20:23 *198:12 0
6 *79:16 *198:12 0.00103472
7 *153:12 *198:12 0
8 *154:6 *198:12 0
9 *181:12 *198:12 0.00236375
*RES
1 *507:Y *198:6 40 
2 *198:6 *198:12 33.2458 
3 *198:12 *501:A 20 
*END

*D_NET *199 0.0133056
*CONN
*I *335:B I *D sg13g2_nor2_1
*I *347:B_N I *D sg13g2_nor2b_1
*I *342:A I *D sg13g2_nor2b_1
*I *333:B I *D sg13g2_nand2_1
*I *553:X O *D sg13g2_buf_1
*CAP
1 *335:B 0
2 *347:B_N 0
3 *342:A 0
4 *333:B 0
5 *553:X 0.000188046
6 *199:51 0.000287785
7 *199:43 0.00132183
8 *199:41 0.00134595
9 *199:33 0.000391229
10 *199:29 0.00172516
11 *199:20 0.00084025
12 *199:12 0.00272628
13 *199:8 0.00042823
14 *199:8 *232:22 0.000124862
15 *199:29 *228:10 0
16 *199:29 *231:19 0
17 *199:41 *243:10 0
18 *199:41 *254:10 0.000393512
19 *199:43 *597:A 0.000274182
20 *199:43 *597:TE_B 0.000274182
21 *199:43 *599:Z 0
22 *199:51 *597:A 0
23 clk_delayed *199:29 0.00044187
24 *342:B_N *199:51 7.51285e-05
25 *347:A *199:51 0.00023464
26 *562:A *199:43 0
27 *11:9 *199:12 0.000435579
28 *11:9 *199:20 0.00127888
29 *24:9 *199:20 0
30 *35:6 *199:41 4.75442e-05
31 *39:69 *199:51 0.000181192
32 *39:75 *199:43 0
33 *119:8 *199:29 0
34 *119:33 *199:29 0
35 *126:22 *199:43 0
36 *166:38 *199:51 0.000241512
37 *167:10 *199:43 0
38 *167:27 *199:43 0
39 *188:27 *199:29 0
40 *188:42 *199:51 4.77425e-05
41 *192:10 *199:41 0
*RES
1 *553:X *199:8 41.8334 
2 *199:8 *199:12 22.9149 
3 *199:12 *199:20 49.8777 
4 *199:20 *333:B 20 
5 *199:12 *199:29 34.4406 
6 *199:29 *199:33 20.7519 
7 *199:33 *199:41 43.3269 
8 *199:41 *199:43 8.9713 
9 *199:43 *199:51 43.605 
10 *199:51 *342:A 20 
11 *199:43 *347:B_N 20 
12 *199:33 *335:B 20 
*END

*D_NET *200 0.00392515
*CONN
*I *605:A I *D sg13g2_ebufn_8
*I *570:Y O *D sg13g2_inv_4
*CAP
1 *605:A 0.00107158
2 *570:Y 0.000264109
3 *200:8 0.00133569
4 *605:A *379:A 0
5 *605:A *605:TE_B 0.000111685
6 *605:A *607:A 0
7 *605:A *213:31 0
8 *200:8 *203:8 0.000340375
9 *346:B *605:A 0
10 *561:A *200:8 0.000287256
11 *37:27 *200:8 0
12 *39:6 *605:A 0.000225651
13 *39:16 *605:A 4.77425e-05
14 *83:18 *605:A 0
15 *85:8 *605:A 0
16 *126:22 *605:A 0.000241052
17 *167:31 *200:8 0
*RES
1 *570:Y *200:8 43.5638 
2 *200:8 *605:A 49.8571 
*END

*D_NET *201 0.00405868
*CONN
*I *509:A I *D sg13g2_einvn_8
*I *515:Y O *D sg13g2_inv_8
*CAP
1 *509:A 0.000386265
2 *515:Y 0.000511797
3 *201:8 0.000898062
4 *513:A *509:A 0.00053206
5 *139:14 *201:8 0.00139499
6 *153:12 *201:8 0
7 *154:6 *509:A 0
8 *154:15 *509:A 0
9 *154:19 *509:A 0
10 *184:44 *201:8 0.000335499
*RES
1 *515:Y *201:8 46.5302 
2 *201:8 *509:A 43.5638 
*END

*D_NET *202 0.00199263
*CONN
*I *517:A I *D sg13g2_einvn_8
*I *523:Y O *D sg13g2_inv_8
*CAP
1 *517:A 0.000545468
2 *523:Y 0.000545468
3 *517:A *218:24 0
4 *499:A *517:A 0.000176175
5 *525:A *517:A 0
6 *526:TE_B *517:A 0.000242213
7 *164:10 *517:A 0.000209899
8 *175:14 *517:A 0.000273403
*RES
1 *523:Y *517:A 45.7268 
*END

*D_NET *203 0.00293292
*CONN
*I *607:A I *D sg13g2_ebufn_8
*I *572:Y O *D sg13g2_inv_4
*CAP
1 *607:A 0.000561199
2 *572:Y 0.000292928
3 *203:8 0.000854127
4 *607:A *379:A 0
5 *607:A *213:31 0
6 *607:A *247:16 1.54556e-05
7 *607:A *255:16 0
8 *338:A *607:A 0.000531057
9 *346:B *607:A 0
10 *346:C *607:A 0.000240749
11 *561:A *203:8 0
12 *605:A *607:A 0
13 *38:31 *607:A 9.7025e-05
14 *38:31 *203:8 0
15 *126:22 *607:A 0
16 *130:14 *607:A 0
17 *130:22 *203:8 0
18 *167:31 *203:8 0
19 *200:8 *203:8 0.000340375
*RES
1 *572:Y *203:8 42.8222 
2 *203:8 *607:A 46.0008 
*END

*D_NET *204 0.00170834
*CONN
*I *524:A I *D sg13g2_einvn_8
*I *530:Y O *D sg13g2_inv_8
*CAP
1 *524:A 0.000256433
2 *530:Y 0.000258259
3 *204:8 0.000514692
4 *524:A *606:A 0
5 *524:A *230:44 0
6 *28:17 *204:8 0
7 *158:22 *204:8 0.000598585
8 *161:32 *204:8 0
9 *185:20 *524:A 8.03692e-05
*RES
1 *530:Y *204:8 42.8222 
2 *204:8 *524:A 42.7192 
*END

*D_NET *205 0.00389355
*CONN
*I *448:A I *D sg13g2_einvn_8
*I *454:Y O *D sg13g2_inv_8
*CAP
1 *448:A 0
2 *454:Y 0.000604295
3 *205:20 0.00134248
4 *205:8 0.00194677
5 *205:8 *207:10 0
6 *205:20 *449:A 0
7 *205:20 *224:23 0
8 *205:20 *230:44 0
9 *91:27 *205:8 0
10 *113:10 *205:20 0
11 *113:14 *205:20 0
12 *115:8 *205:20 0
13 *178:12 *205:8 0
*RES
1 *454:Y *205:8 44.7998 
2 *205:8 *205:20 32.257 
3 *205:20 *448:A 20 
*END

*D_NET *206 0.00108628
*CONN
*I *597:A I *D sg13g2_ebufn_8
*I *562:Y O *D sg13g2_inv_4
*CAP
1 *597:A 0.000268958
2 *562:Y 0.000268958
3 *597:A *597:TE_B 0
4 *562:A *597:A 0.000274182
5 *166:38 *597:A 0
6 *199:43 *597:A 0.000274182
7 *199:51 *597:A 0
*RES
1 *562:Y *597:A 43.0797 
*END

*D_NET *207 0.000884826
*CONN
*I *456:A I *D sg13g2_einvn_8
*I *462:Y O *D sg13g2_inv_8
*CAP
1 *456:A 0
2 *462:Y 0.000338286
3 *207:10 0.000338286
4 *454:A *207:10 0.000208254
5 *458:TE_B *207:10 0
6 *91:27 *207:10 0
7 *205:8 *207:10 0
*RES
1 *462:Y *207:10 42.987 
2 *207:10 *456:A 40 
*END

*D_NET *208 0.00369318
*CONN
*I *410:A I *D sg13g2_buf_16
*I *573:X O *D sg13g2_buf_1
*CAP
1 *410:A 8.92532e-05
2 *573:X 0
3 *208:27 0.000226349
4 *208:19 0.00175734
5 *208:6 0.00162024
6 *17:15 *208:19 0
7 *55:15 *410:A 0
8 *55:15 *208:27 0
9 *97:16 *208:19 0
10 *97:24 *208:19 0
11 *144:12 *208:19 0
12 *167:47 *410:A 0
13 *180:14 *208:19 0
14 *180:24 *208:19 0
*RES
1 *573:X *208:6 40 
2 *208:6 *208:19 34.2552 
3 *208:19 *208:27 40.9167 
4 *208:27 *410:A 20.9347 
*END

*D_NET *209 0.00248755
*CONN
*I *384:A I *D sg13g2_buf_16
*I *574:X O *D sg13g2_buf_1
*CAP
1 *384:A 0.000129939
2 *574:X 0.000100879
3 *209:19 0.0011429
4 *209:6 0.00111384
5 *384:A *600:A 0
6 *209:19 *600:A 0
7 *209:19 *231:19 0
8 *209:19 *231:31 0
9 *34:8 *209:19 0
10 *49:19 *209:6 0
11 *49:19 *209:19 0
12 *64:8 *209:19 0
13 *65:20 *209:19 0
14 *123:25 *209:6 0
15 *123:25 *209:19 0
16 *179:14 *209:19 0
*RES
1 *574:X *209:6 20.9682 
2 *209:6 *209:19 49.4554 
3 *209:19 *384:A 21.1845 
*END

*D_NET *210 0.00311506
*CONN
*I *441:A I *D sg13g2_inv_1
*I *444:TE_B I *D sg13g2_einvn_8
*I *554:X O *D sg13g2_buf_1
*CAP
1 *441:A 0
2 *444:TE_B 0
3 *554:X 0.000194437
4 *210:37 0.000306952
5 *210:20 0.000455667
6 *210:10 0.000762619
7 *210:8 0.000194437
8 *210:37 *234:37 0
9 *440:TE_B *210:20 0
10 *440:TE_B *210:37 0
11 *461:A *210:20 7.89102e-05
12 *469:A *210:20 0.000209526
13 *46:41 *210:20 0
14 *124:12 *210:8 0.000288589
15 *125:10 *210:37 0.000171958
16 *125:16 *210:8 0
17 *125:16 *210:20 0
18 *191:8 *210:20 0.000144985
19 *191:8 *210:37 0.000306984
20 *191:14 *210:8 0
*RES
1 *554:X *210:8 42.575 
2 *210:8 *210:10 20 
3 *210:10 *210:20 44.5423 
4 *210:20 *444:TE_B 20 
5 *210:10 *210:37 43.5329 
6 *210:37 *441:A 20 
*END

*D_NET *211 0.00187207
*CONN
*I *413:A I *D sg13g2_buf_16
*I *575:X O *D sg13g2_buf_1
*CAP
1 *413:A 0.000101732
2 *575:X 0
3 *211:15 0.000936034
4 *211:6 0.000834303
5 *505:TE_B *211:15 0
6 *58:17 *211:15 0
7 *60:31 *211:15 0
8 *60:44 *211:15 0
9 *81:22 *413:A 0
10 *81:22 *211:15 0
11 *94:24 *211:15 0
12 *134:12 *413:A 0
13 *134:12 *211:15 0
14 *151:12 *211:15 0
15 *171:33 *211:15 0
*RES
1 *575:X *211:6 40 
2 *211:6 *211:15 27.8692 
3 *211:15 *413:A 20.9682 
*END

*D_NET *212 0.00248622
*CONN
*I *407:A I *D sg13g2_buf_16
*I *576:X O *D sg13g2_buf_1
*CAP
1 *407:A 0.000165856
2 *576:X 0.000178539
3 *212:17 0.00105687
4 *212:10 0.00106955
5 *27:17 *212:10 0
6 *27:17 *212:17 0
7 *96:20 *212:17 0
8 *126:6 *212:17 0
9 *131:16 *212:10 0
10 *131:20 *212:10 1.54008e-05
11 *168:12 *407:A 0
12 *168:12 *212:17 0
13 *170:47 *212:17 0
*RES
1 *576:X *212:10 21.7304 
2 *212:10 *212:17 8.4563 
3 *212:17 *407:A 22.06 
*END

*D_NET *213 0.00294574
*CONN
*I *379:A I *D sg13g2_buf_16
*I *577:X O *D sg13g2_buf_1
*CAP
1 *379:A 0.000145012
2 *577:X 6.62737e-05
3 *213:31 0.000172222
4 *213:27 0.000427598
5 *213:19 0.00123437
6 *213:8 0.000900257
7 *213:8 *230:44 0
8 *213:19 *244:20 0
9 *605:A *379:A 0
10 *605:A *213:31 0
11 *607:A *379:A 0
12 *607:A *213:31 0
13 *38:31 *213:19 0
14 *44:21 *213:19 0
15 *62:55 *213:8 0
*RES
1 *577:X *213:8 40.5356 
2 *213:8 *213:19 47.3748 
3 *213:19 *213:27 43.6668 
4 *213:27 *213:31 20.3193 
5 *213:31 *379:A 21.1845 
*END

*D_NET *214 0.00432858
*CONN
*I *428:A I *D sg13g2_inv_8
*I *578:X O *D sg13g2_buf_1
*CAP
1 *428:A 0.000408724
2 *578:X 0.000499187
3 *214:26 0.000891902
4 *214:18 0.000982364
5 *428:A *247:16 0.000563703
6 *338:A *428:A 0
7 *561:A *214:26 0
8 *38:31 *214:26 0.000495976
9 *44:6 *428:A 0
10 *45:51 *214:26 0
11 *157:14 *214:18 0.000234074
12 *158:35 *214:18 7.34081e-05
13 *161:14 *214:26 0
14 *161:24 *214:18 0.00017924
15 *185:20 *214:18 0
*RES
1 *578:X *214:18 44.9131 
2 *214:18 *214:26 43.46 
3 *214:26 *428:A 44.3775 
*END

*D_NET *215 0.00205622
*CONN
*I *434:A I *D sg13g2_inv_8
*I *579:X O *D sg13g2_buf_1
*CAP
1 *434:A 4.89855e-05
2 *579:X 0.000757122
3 *215:8 0.000806107
4 *434:A *600:A 0
5 *434:A *601:TE_B 0
6 *215:8 *249:10 0.00018128
7 *470:TE_B *434:A 8.01118e-05
8 *73:10 *215:8 0
9 *73:33 *215:8 0
10 *93:12 *215:8 0.00018261
11 *127:17 *215:8 0
12 *127:32 *215:8 0
13 *127:34 *215:8 0
*RES
1 *579:X *215:8 48.0134 
2 *215:8 *434:A 40.5356 
*END

*D_NET *216 0.00672953
*CONN
*I *423:A I *D sg13g2_inv_8
*I *580:X O *D sg13g2_buf_1
*CAP
1 *423:A 0
2 *580:X 0
3 *216:12 0.000640622
4 *216:6 0.000640622
5 *216:12 *234:14 0.00260144
6 *42:17 *216:12 0
7 *124:12 *216:12 0.00284684
*RES
1 *580:X *216:6 40 
2 *216:6 *216:12 33.9565 
3 *216:12 *423:A 20 
*END

*D_NET *217 0.000492793
*CONN
*I *497:A I *D sg13g2_einvn_8
*I *581:X O *D sg13g2_buf_1
*CAP
1 *497:A 0.000141993
2 *581:X 0.000141993
3 *135:10 *497:A 0
4 *143:8 *497:A 0
5 *181:12 *497:A 0.000208807
*RES
1 *581:X *497:A 41.4008 
*END

*D_NET *218 0.0245882
*CONN
*I *425:A I *D sg13g2_inv_2
*I *582:X O *D sg13g2_buf_1
*CAP
1 *425:A 0
2 *582:X 3.90207e-05
3 *218:34 0.000712679
4 *218:24 0.00235508
5 *218:20 0.00243799
6 *218:10 0.00370422
7 *218:8 0.00294765
8 *218:20 *225:16 0.00044391
9 *344:B *218:24 0.000366211
10 *453:TE_B *218:34 0
11 *477:TE_B *218:8 0
12 *517:A *218:24 0
13 *525:A *218:24 0.00115538
14 *8:25 *218:34 0.000357902
15 *17:15 *218:10 0
16 *17:19 *218:10 0
17 *28:35 *218:24 0.000500329
18 *30:15 *218:24 0.00296336
19 *33:13 *218:34 0.000631167
20 *61:43 *218:10 0
21 *68:23 *218:34 0
22 *86:8 *218:34 0
23 *94:28 *218:8 0
24 *131:28 *218:10 0
25 *132:15 *218:10 0
26 *134:20 *218:10 0.00177672
27 *142:20 *218:20 0
28 *154:38 *218:10 0
29 *155:20 *218:20 0
30 *169:29 *218:10 0
31 *169:29 *218:20 0
32 *169:41 *218:10 0.0031957
33 *170:34 *218:20 0.000387103
34 *175:14 *218:24 0
35 *180:24 *218:10 7.5823e-05
36 *186:26 *218:24 0
37 *186:26 *218:34 0.000537995
*RES
1 *582:X *218:8 40.3193 
2 *218:8 *218:10 31.2502 
3 *218:10 *218:20 47.3542 
4 *218:20 *218:24 39.7863 
5 *218:24 *218:34 48.0958 
6 *218:34 *425:A 20 
*END

*D_NET *219 0.000260789
*CONN
*I *430:A I *D sg13g2_inv_2
*I *583:X O *D sg13g2_buf_1
*CAP
1 *430:A 9.021e-05
2 *583:X 9.021e-05
3 *430:A *251:8 8.03692e-05
4 *583:A *430:A 0
5 *20:29 *430:A 0
*RES
1 *583:X *430:A 41.133 
*END

*D_NET *220 0.00401538
*CONN
*I *444:A I *D sg13g2_einvn_8
*I *584:X O *D sg13g2_buf_8
*CAP
1 *444:A 0
2 *584:X 0.000660808
3 *220:14 0.00134688
4 *220:10 0.00200769
5 *220:14 *227:17 0
6 *377:A *220:10 0
7 *378:A *220:10 0
8 *34:14 *220:10 0
9 *41:15 *220:10 0
10 *42:35 *220:14 0
11 *43:6 *220:10 0
12 *43:11 *220:10 0
13 *66:16 *220:10 0
14 *105:17 *220:14 0
15 *106:35 *220:14 0
16 *106:55 *220:14 0
17 *122:25 *220:14 0
18 *125:16 *220:14 0
19 *173:14 *220:14 0
*RES
1 *584:X *220:10 45.8607 
2 *220:10 *220:14 32.9574 
3 *220:14 *444:A 20 
*END

*D_NET *221 0.00597343
*CONN
*I *449:A I *D sg13g2_inv_1
*I *452:TE_B I *D sg13g2_einvn_8
*I *555:X O *D sg13g2_buf_1
*CAP
1 *449:A 0.000847433
2 *452:TE_B 0
3 *555:X 9.29939e-05
4 *221:16 0.00106653
5 *221:8 0.00200696
6 *449:A *439:A 0
7 *449:A *230:44 0
8 *449:A *232:35 0
9 *221:8 *232:22 0.00017737
10 clk_delayed *221:8 0.00017737
11 *9:15 *221:16 0
12 *11:9 *221:16 0
13 *11:15 *221:16 0
14 *12:11 *221:16 0.00121351
15 *115:8 *449:A 0
16 *176:8 *221:16 0
17 *178:12 *449:A 0.000391264
18 *205:20 *449:A 0
*RES
1 *555:X *221:8 41.1845 
2 *221:8 *221:16 30.4751 
3 *221:16 *452:TE_B 20 
4 *221:8 *449:A 48.4975 
*END

*D_NET *222 0.00201997
*CONN
*I *412:A I *D sg13g2_buf_16
*I *585:X O *D sg13g2_buf_1
*CAP
1 *412:A 0
2 *585:X 1.76638e-05
3 *222:17 0.000992323
4 *222:6 0.00100999
5 *60:15 *222:17 0
6 *140:16 *222:17 0
7 *147:18 *222:17 0
8 *172:64 *222:6 0
9 *172:64 *222:17 0
10 *195:20 *222:17 0
*RES
1 *585:X *222:6 20.1648 
2 *222:6 *222:17 28.8683 
3 *222:17 *412:A 40 
*END

*D_NET *223 0.0014652
*CONN
*I *489:A I *D sg13g2_einvn_8
*I *586:X O *D sg13g2_buf_1
*CAP
1 *489:A 0.000708753
2 *586:X 0.000708753
3 *489:A *573:A 0
4 *389:A *489:A 0
5 *392:A *489:A 0
6 *438:A *489:A 4.76973e-05
7 *586:A *489:A 0
8 *54:35 *489:A 0
9 *56:37 *489:A 0
10 *56:43 *489:A 0
11 *56:48 *489:A 0
*RES
1 *586:X *489:A 46.8039 
*END

*D_NET *224 0.00322053
*CONN
*I *402:A I *D sg13g2_buf_16
*I *587:X O *D sg13g2_buf_1
*CAP
1 *402:A 0.000114557
2 *587:X 7.10614e-05
3 *224:29 0.000703886
4 *224:23 0.00142465
5 *224:6 0.000906378
6 *224:23 *230:44 0
7 *224:29 *242:174 0
8 *68:23 *224:23 0
9 *89:8 *224:23 0
10 *89:16 *224:23 0
11 *90:8 *224:29 0
12 *113:10 *224:23 0
13 *113:14 *224:23 0
14 *113:27 *224:29 0
15 *115:8 *224:23 0
16 *115:20 *224:29 0
17 *183:12 *224:23 0
18 *188:27 *224:29 0
19 *205:20 *224:23 0
*RES
1 *587:X *224:6 20.7957 
2 *224:6 *224:23 47.331 
3 *224:23 *224:29 44.7998 
4 *224:29 *402:A 20.9682 
*END

*D_NET *225 0.00217892
*CONN
*I *521:A I *D sg13g2_einvn_8
*I *588:X O *D sg13g2_buf_1
*CAP
1 *521:A 0
2 *588:X 0.000608011
3 *225:16 0.000608011
4 *225:16 *230:44 0
5 *516:A *225:16 0
6 *142:20 *225:16 0.00049699
7 *169:29 *225:16 2.19989e-05
8 *185:28 *225:16 0
9 *218:20 *225:16 0.00044391
*RES
1 *588:X *225:16 46.9422 
2 *225:16 *521:A 40 
*END

*D_NET *226 0.000268074
*CONN
*I *505:A I *D sg13g2_einvn_8
*I *589:X O *D sg13g2_buf_1
*CAP
1 *505:A 0.000126337
2 *589:X 0.000126337
3 *589:A *505:A 1.54008e-05
4 *57:13 *505:A 0
5 *181:12 *505:A 0
*RES
1 *589:X *505:A 41.3802 
*END

*D_NET *227 0.00300611
*CONN
*I *376:A I *D sg13g2_buf_16
*I *590:X O *D sg13g2_buf_1
*CAP
1 *376:A 0.000139814
2 *590:X 6.3134e-05
3 *227:17 0.00143992
4 *227:8 0.00136324
5 *376:A *595:Z 0
6 *376:A *242:109 0
7 *227:17 *595:Z 0
8 *227:17 *242:109 0
9 *440:A *227:8 0
10 *445:A *227:17 0
11 *104:16 *227:17 0
12 *104:18 *227:17 0
13 *105:17 *227:17 0
14 *123:8 *227:17 0
15 *125:16 *376:A 0
16 *125:16 *227:17 0
17 *220:14 *227:17 0
*RES
1 *590:X *227:8 40.5356 
2 *227:8 *227:17 32.2261 
3 *227:17 *376:A 21.1845 
*END

*D_NET *228 0.000501824
*CONN
*I *460:A I *D sg13g2_einvn_8
*I *591:X O *D sg13g2_buf_1
*CAP
1 *460:A 0
2 *591:X 0.000121135
3 *228:10 0.000121135
4 *456:Z *228:10 0
5 *110:6 *228:10 8.01118e-05
6 *119:8 *228:10 0.000179443
7 *199:29 *228:10 0
*RES
1 *591:X *228:10 41.3802 
2 *228:10 *460:A 40 
*END

*D_NET *229 0.0156976
*CONN
*I *436:A I *D sg13g2_inv_1
*I *592:X O *D sg13g2_buf_1
*CAP
1 *436:A 0
2 *592:X 0.00121912
3 *229:10 0.00274324
4 *229:8 0.00274324
5 *229:6 0.00121912
6 *479:Z *229:6 0
7 *568:A *229:6 0.000242213
8 *6:17 *229:10 0.00129719
9 *19:9 *229:10 0
10 *22:11 *229:10 0.000925382
11 *30:9 *229:10 0.00390434
12 *31:9 *229:10 0
13 *82:8 *229:10 0
14 *82:36 *229:6 0
15 *82:36 *229:10 0
16 *94:28 *229:6 0.00140376
17 *97:16 *229:6 0
18 *131:20 *229:6 0
19 *166:8 *229:10 0
*RES
1 *592:X *229:6 33.2973 
2 *229:6 *229:8 20 
3 *229:8 *229:10 36.1942 
4 *229:10 *436:A 40 
*END

*D_NET *230 0.0164695
*CONN
*I *573:A I *D sg13g2_buf_1
*I *439:A I *D sg13g2_inv_1
*I *593:X O *D sg13g2_buf_1
*CAP
1 *573:A 5.63434e-05
2 *439:A 0.000137681
3 *593:X 0
4 *230:58 0.000122436
5 *230:44 0.00546093
6 *230:21 0.00797463
7 *230:6 0.00271747
8 *449:A *439:A 0
9 *449:A *230:44 0
10 *452:A *230:44 0
11 *456:Z *230:44 0
12 *489:A *573:A 0
13 *495:A *230:44 0
14 *516:A *230:44 0
15 *517:TE_B *230:44 0
16 *524:A *230:44 0
17 *524:Z *230:44 0
18 *526:A *230:44 0
19 *529:A *230:44 0
20 *577:A *230:44 0
21 *17:15 *230:21 0
22 *17:19 *230:21 0
23 *20:23 *230:44 0
24 *56:41 *573:A 0
25 *56:43 *573:A 0
26 *59:27 *230:21 0
27 *62:55 *230:44 0
28 *84:6 *230:44 0
29 *86:16 *230:44 0
30 *91:27 *230:44 0
31 *97:24 *230:21 0
32 *110:6 *230:44 0
33 *111:8 *230:44 0
34 *111:25 *230:44 0
35 *112:19 *230:44 0
36 *113:14 *230:44 0
37 *135:10 *230:21 0
38 *148:15 *230:21 0
39 *148:21 *230:21 0
40 *159:13 *230:44 0
41 *172:8 *230:44 0
42 *182:20 *230:44 0
43 *185:20 *230:44 0
44 *205:20 *230:44 0
45 *213:8 *230:44 0
46 *224:23 *230:44 0
47 *225:16 *230:44 0
*RES
1 *593:X *230:6 40 
2 *230:6 *230:21 44.926 
3 *230:21 *230:44 47.3677 
4 *230:44 *439:A 21.5656 
5 *230:6 *230:58 0.5974 
6 *230:58 *573:A 40.5356 
*END

*D_NET *231 0.00491735
*CONN
*I *574:A I *D sg13g2_buf_1
*I *433:A I *D sg13g2_inv_1
*I *594:X O *D sg13g2_buf_1
*CAP
1 *574:A 5.62435e-05
2 *433:A 8.9753e-05
3 *594:X 0
4 *231:31 0.000233801
5 *231:19 0.00222487
6 *231:6 0.00231268
7 *433:A *233:14 0
8 *440:TE_B *433:A 0
9 *458:A *433:A 0
10 *458:A *231:19 0
11 *34:22 *231:19 0
12 *39:75 *231:19 0
13 *48:21 *231:31 0
14 *65:20 *231:19 0
15 *74:16 *231:19 0
16 *74:16 *231:31 0
17 *123:13 *231:19 0
18 *123:25 *574:A 0
19 *188:42 *231:19 0
20 *199:29 *231:19 0
21 *209:19 *231:19 0
22 *209:19 *231:31 0
*RES
1 *594:X *231:6 40 
2 *231:6 *231:19 40.6515 
3 *231:19 *433:A 20.9682 
4 *231:6 *231:31 1.5862 
5 *231:31 *574:A 40.5356 
*END

*D_NET *232 0.00393012
*CONN
*I *457:A I *D sg13g2_inv_1
*I *460:TE_B I *D sg13g2_einvn_8
*I *556:X O *D sg13g2_buf_1
*CAP
1 *457:A 0
2 *460:TE_B 0
3 *556:X 0
4 *232:35 0.000398144
5 *232:22 0.000835151
6 *232:4 0.00123329
7 clk_delayed *232:22 0.000112799
8 *449:A *232:35 0
9 *456:TE_B *232:35 0.000306897
10 *459:A *232:35 0
11 *9:15 *232:22 0.000289983
12 *12:11 *232:22 0.000242423
13 *24:15 *232:22 0.000209198
14 *25:11 *232:22 0
15 *25:11 *232:35 0
16 *121:10 *232:35 0
17 *176:8 *232:35 0
18 *199:8 *232:22 0.000124862
19 *221:8 *232:22 0.00017737
*RES
1 *556:X *232:4 20 
2 *232:4 *232:22 48.8477 
3 *232:22 *460:TE_B 20 
4 *232:4 *232:35 44.3157 
5 *232:35 *457:A 20 
*END

*D_NET *233 0.00289192
*CONN
*I *443:A I *D sg13g2_inv_1
*I *445:TE_B I *D sg13g2_einvn_8
*I *557:X O *D sg13g2_buf_1
*CAP
1 *443:A 0
2 *445:TE_B 0.000159124
3 *557:X 0.000183933
4 *233:14 0.00126203
5 *233:8 0.00128684
6 *233:8 *234:37 0
7 *233:14 *234:14 0
8 *233:14 *234:37 0
9 *433:A *233:14 0
10 *440:A *233:14 0
11 *440:TE_B *233:14 0
12 *442:TE_B *233:8 0
13 *446:A *233:14 0
14 *34:16 *233:14 0
15 *34:22 *233:14 0
16 *106:6 *233:14 0
17 *106:15 *233:14 0
18 *106:35 *233:14 0
19 *122:25 *233:14 0
20 *125:16 *445:TE_B 0
21 *167:10 *445:TE_B 0
22 *173:6 *233:8 0
23 *173:6 *233:14 0
24 *173:14 *233:14 0
*RES
1 *557:X *233:8 21.751 
2 *233:8 *233:14 31.1446 
3 *233:14 *445:TE_B 41.4008 
4 *233:8 *443:A 20 
*END

*D_NET *234 0.0103432
*CONN
*I *466:A I *D sg13g2_inv_1
*I *468:TE_B I *D sg13g2_einvn_8
*I *558:X O *D sg13g2_buf_1
*CAP
1 *466:A 0
2 *468:TE_B 0.000506491
3 *558:X 0
4 *234:43 0.000170139
5 *234:37 0.000622226
6 *234:14 0.00139061
7 *234:4 0.0013362
8 *378:A *468:TE_B 0
9 *10:11 *234:37 0.000128662
10 *14:13 *234:14 0.00265502
11 *40:11 *234:14 0
12 *40:17 *234:14 0
13 *42:17 *468:TE_B 0
14 *49:43 *468:TE_B 0
15 *66:16 *468:TE_B 0.000306754
16 *87:17 *234:43 0.00044838
17 *92:8 *234:14 0
18 *123:47 *468:TE_B 0
19 *124:12 *234:14 0
20 *124:12 *234:37 0
21 *173:6 *234:37 0.000177299
22 *191:14 *234:37 0
23 *191:14 *234:43 0
24 *210:37 *234:37 0
25 *216:12 *234:14 0.00260144
26 *233:8 *234:37 0
27 *233:14 *234:14 0
28 *233:14 *234:37 0
*RES
1 *558:X *234:4 20 
2 *234:4 *234:14 36.0783 
3 *234:14 *468:TE_B 45.0985 
4 *234:4 *234:37 44.6968 
5 *234:37 *234:43 42.0806 
6 *234:43 *466:A 20 
*END

*D_NET *235 0.000832147
*CONN
*I *595:A I *D sg13g2_ebufn_8
*I *560:X O *D sg13g2_buf_4
*CAP
1 *595:A 0.000279969
2 *560:X 0.000279969
3 *348:B *595:A 0.000272209
4 *167:10 *595:A 0
*RES
1 *560:X *595:A 42.9664 
*END

*D_NET *236 0.000405032
*CONN
*I *596:A I *D sg13g2_ebufn_8
*I *561:X O *D sg13g2_buf_4
*CAP
1 *596:A 0.000202516
2 *561:X 0.000202516
3 *161:14 *596:A 0
*RES
1 *561:X *596:A 42.3278 
*END

*D_NET *237 0.000738257
*CONN
*I *598:A I *D sg13g2_ebufn_8
*I *563:X O *D sg13g2_buf_8
*CAP
1 *598:A 0.000231909
2 *563:X 0.000231909
3 *119:33 *598:A 0.000274439
4 *185:55 *598:A 0
*RES
1 *563:X *598:A 42.266 
*END

*D_NET *238 0.00102798
*CONN
*I *600:A I *D sg13g2_ebufn_8
*I *565:X O *D sg13g2_buf_4
*CAP
1 *600:A 0.00051399
2 *565:X 0.00051399
3 *600:A *600:TE_B 0
4 *384:A *600:A 0
5 *434:A *600:A 0
6 *470:TE_B *600:A 0
7 *209:19 *600:A 0
*RES
1 *565:X *600:A 45.5311 
*END

*D_NET *239 0.00531659
*CONN
*I *602:A I *D sg13g2_ebufn_8
*I *567:X O *D sg13g2_buf_4
*CAP
1 *602:A 0
2 *567:X 0.000122006
3 *239:16 0.000628658
4 *239:8 0.000750664
5 *239:16 *250:12 0
6 *535:A *239:16 0
7 *567:A *239:8 0
8 *567:A *239:16 0.00160858
9 *73:33 *239:8 0.000176967
10 *75:31 *239:16 0
11 *96:12 *239:16 0
12 *168:18 *239:16 0.00202971
13 *183:37 *239:16 0
*RES
1 *567:X *239:8 41.1845 
2 *239:8 *239:16 30.9077 
3 *239:16 *602:A 20 
*END

*D_NET *240 0.00338307
*CONN
*I *604:A I *D sg13g2_ebufn_8
*I *569:X O *D sg13g2_buf_4
*CAP
1 *604:A 0.000520357
2 *569:X 0.000401764
3 *240:8 0.000922121
4 *604:A *252:18 0
5 *505:TE_B *604:A 0.000403296
6 *100:8 *240:8 0
7 *136:18 *240:8 0.00113553
8 *140:16 *240:8 0
9 *172:64 *604:A 0
*RES
1 *569:X *240:8 45.2942 
2 *240:8 *604:A 43.8844 
*END

*D_NET *241 0.00136222
*CONN
*I *606:A I *D sg13g2_ebufn_8
*I *571:X O *D sg13g2_buf_4
*CAP
1 *606:A 0.000451717
2 *571:X 0.000451717
3 *606:A *254:22 0
4 *380:A *606:A 0
5 *524:A *606:A 0
6 *588:A *606:A 0
7 *84:6 *606:A 0
8 *185:20 *606:A 0
9 *185:28 *606:A 0.000458783
*RES
1 *571:X *606:A 44.8822 
*END

*D_NET *242 0.020723
*CONN
*I *608:A I *D sg13g2_buf_16
*I *598:Z O *D sg13g2_ebufn_8
*I *597:Z O *D sg13g2_ebufn_8
*I *596:Z O *D sg13g2_ebufn_8
*I *599:Z O *D sg13g2_ebufn_8
*I *600:Z O *D sg13g2_ebufn_8
*I *595:Z O *D sg13g2_ebufn_8
*I *601:Z O *D sg13g2_ebufn_8
*I *602:Z O *D sg13g2_ebufn_8
*I *603:Z O *D sg13g2_ebufn_8
*I *604:Z O *D sg13g2_ebufn_8
*I *605:Z O *D sg13g2_ebufn_8
*I *606:Z O *D sg13g2_ebufn_8
*I *607:Z O *D sg13g2_ebufn_8
*CAP
1 *608:A 5.54616e-05
2 *598:Z 0.000239277
3 *597:Z 0
4 *596:Z 0.000306458
5 *599:Z 0.000291266
6 *600:Z 0
7 *595:Z 0.000943249
8 *601:Z 0.00117431
9 *602:Z 0.00126593
10 *603:Z 0
11 *604:Z 0.000277388
12 *605:Z 0
13 *606:Z 0
14 *607:Z 0.000503536
15 *242:174 0.000786831
16 *242:151 0.00162705
17 *242:142 4.47443e-05
18 *242:129 0.000797907
19 *242:127 0.00132482
20 *242:109 0.000442159
21 *242:84 0.000570637
22 *242:82 0.000538867
23 *242:36 0.00112243
24 *242:25 0.000598593
25 *242:16 0.000869363
26 *242:14 0.000988859
27 *595:Z *247:24 0
28 *598:Z *246:18 0
29 *242:16 *251:14 0.00128615
30 *242:16 *254:22 0
31 *242:25 *251:14 0.00124526
32 *242:36 *251:14 0.000658895
33 *242:142 *247:24 0.00023464
34 *242:151 *246:18 0
35 *338:A *596:Z 0.000450599
36 *338:A *242:127 0.000290735
37 *338:A *242:129 0.000144726
38 *376:A *595:Z 0
39 *376:A *242:109 0
40 *380:A *242:14 0
41 *387:A *601:Z 0
42 *419:A *602:Z 0
43 *421:A *242:129 0
44 *435:A *601:Z 0
45 *435:A *602:Z 0
46 *454:A *242:174 0.000434901
47 *470:Z *242:82 0
48 *599:A *595:Z 0
49 *28:17 *242:16 0
50 *28:17 *242:25 0
51 *34:30 *242:151 0
52 *34:30 *242:174 0
53 *35:10 *242:127 7.46854e-05
54 *35:46 *242:109 0.000818286
55 *45:51 *242:14 0
56 *47:15 *242:82 0
57 *66:22 *242:82 0
58 *70:14 *598:Z 0
59 *70:14 *242:174 0
60 *74:16 *595:Z 0
61 *74:16 *242:82 0
62 *90:8 *242:174 0
63 *94:20 *601:Z 0
64 *94:20 *602:Z 0
65 *94:20 *604:Z 0
66 *98:12 *242:25 0
67 *98:12 *242:36 0
68 *110:6 *608:A 8.02267e-05
69 *113:19 *598:Z 0
70 *113:27 *242:174 0
71 *113:43 *598:Z 0
72 *113:43 *242:151 0
73 *125:16 *242:109 0
74 *126:22 *599:Z 0
75 *130:14 *596:Z 0
76 *130:14 *242:127 0
77 *130:14 *242:129 0
78 *148:51 *602:Z 0
79 *148:51 *604:Z 0
80 *157:8 *242:14 0
81 *171:18 *242:142 0.000234726
82 *171:20 *601:Z 0
83 *171:20 *602:Z 0
84 *185:20 *242:14 0
85 *185:20 *242:16 0
86 *192:10 *242:127 0
87 *192:16 *242:82 0
88 *193:10 *601:Z 0
89 *199:43 *599:Z 0
90 *224:29 *242:174 0
91 *227:17 *595:Z 0
92 *227:17 *242:109 0
*RES
1 *607:Z *242:14 44.6144 
2 *242:14 *242:16 6.0358 
3 *242:16 *606:Z 40 
4 *242:16 *242:25 5.7886 
5 *242:25 *605:Z 40 
6 *242:25 *242:36 23.0694 
7 *242:36 *604:Z 22.3999 
8 *242:36 *603:Z 20 
9 *242:36 *602:Z 23.1452 
10 *602:Z *601:Z 45.9431 
11 *601:Z *242:82 45.8298 
12 *242:82 *242:84 20 
13 *242:84 *595:Z 25.6444 
14 *242:84 *600:Z 20 
15 *595:Z *242:109 44.7792 
16 *242:109 *599:Z 40.5356 
17 *599:Z *242:127 22.6471 
18 *242:127 *242:129 4.2127 
19 *242:129 *596:Z 23.3475 
20 *242:129 *242:142 41.0918 
21 *242:142 *597:Z 20 
22 *242:127 *242:151 25.047 
23 *242:151 *598:Z 41.6583 
24 *242:151 *242:174 46.592 
25 *242:174 *608:A 40.5356 
*END

*D_NET *243 0.0016894
*CONN
*I *595:TE_B I *D sg13g2_ebufn_8
*I *336:Y O *D sg13g2_nand2_1
*CAP
1 *595:TE_B 0
2 *336:Y 0.000395039
3 *243:10 0.000395039
4 *243:10 *254:10 0
5 *34:22 *243:10 0.000240755
6 *35:6 *243:10 0
7 *35:10 *243:10 0
8 *188:27 *243:10 0.000234224
9 *188:42 *243:10 0.000424342
10 *199:41 *243:10 0
*RES
1 *336:Y *243:10 44.6865 
2 *243:10 *595:TE_B 40 
*END

*D_NET *244 0.00334287
*CONN
*I *596:TE_B I *D sg13g2_ebufn_8
*I *350:Y O *D sg13g2_nand2_1
*CAP
1 *596:TE_B 5.90455e-05
2 *350:Y 9.02769e-05
3 *244:20 0.00116031
4 *244:8 0.00119154
5 *561:A *244:20 0
6 *32:15 *244:8 0.000332167
7 *34:36 *244:20 0
8 *36:35 *244:8 0.000332323
9 *37:27 *244:20 0
10 *38:31 *244:20 0
11 *39:28 *244:20 0
12 *44:29 *244:20 0
13 *172:24 *244:20 0.000177216
14 *213:19 *244:20 0
*RES
1 *350:Y *244:8 41.5862 
2 *244:8 *244:20 48.8168 
3 *244:20 *596:TE_B 40.5356 
*END

*D_NET *245 0.0022319
*CONN
*I *597:TE_B I *D sg13g2_ebufn_8
*I *351:Y O *D sg13g2_nand3_1
*CAP
1 *597:TE_B 0.000504549
2 *351:Y 0.000504549
3 *597:A *597:TE_B 0
4 *67:16 *597:TE_B 0.000208035
5 *85:8 *597:TE_B 0.000208035
6 *166:38 *597:TE_B 0
7 *167:27 *597:TE_B 0.000532548
8 *199:43 *597:TE_B 0.000274182
*RES
1 *351:Y *597:TE_B 45.7474 
*END

*D_NET *246 0.00390539
*CONN
*I *598:TE_B I *D sg13g2_ebufn_8
*I *333:Y O *D sg13g2_nand2_1
*CAP
1 *598:TE_B 0
2 *333:Y 0.000400623
3 *246:18 0.00122178
4 *246:12 0.0016224
5 *333:A *246:12 0.000419952
6 *598:Z *246:18 0
7 *9:15 *246:12 0
8 *30:15 *246:12 0
9 *34:30 *246:18 0
10 *89:8 *246:18 0
11 *113:19 *246:18 0
12 *113:27 *246:18 0
13 *115:20 *246:12 8.03692e-05
14 *115:20 *246:18 0
15 *119:33 *246:18 8.00842e-05
16 *183:12 *246:12 8.0185e-05
17 *242:151 *246:18 0
*RES
1 *333:Y *246:12 44.6659 
2 *246:12 *246:18 30.7738 
3 *246:18 *598:TE_B 20 
*END

*D_NET *247 0.00693783
*CONN
*I *599:TE_B I *D sg13g2_ebufn_8
*I *338:Y O *D sg13g2_nand2_1
*CAP
1 *599:TE_B 0
2 *338:Y 0.00082401
3 *247:24 0.00138005
4 *247:16 0.00220406
5 *247:16 *255:16 7.99992e-05
6 *338:A *247:16 0
7 *338:B *247:16 8.02269e-05
8 *342:B_N *247:24 0
9 *359:A *247:24 0
10 *381:A *247:24 0
11 *428:A *247:16 0.000563703
12 *595:Z *247:24 0
13 *599:A *247:24 0.000240243
14 *607:A *247:16 1.54556e-05
15 *37:27 *247:24 0
16 *47:15 *247:24 0
17 *125:16 *247:24 0
18 *161:14 *247:16 0.000919629
19 *171:18 *247:24 0.000395811
20 *177:60 *247:24 0
21 *183:22 *247:24 0
22 *188:42 *247:24 0
23 *242:142 *247:24 0.00023464
*RES
1 *338:Y *247:16 49.5069 
2 *247:16 *247:24 33.7196 
3 *247:24 *599:TE_B 20 
*END

*D_NET *248 0.0046868
*CONN
*I *600:TE_B I *D sg13g2_ebufn_8
*I *340:Y O *D sg13g2_nand2_1
*CAP
1 *600:TE_B 0.000850869
2 *340:Y 0.00025089
3 *248:8 0.00110176
4 *600:TE_B *601:TE_B 0
5 *387:A *600:TE_B 0
6 *470:Z *600:TE_B 0
7 *600:A *600:TE_B 0
8 *96:10 *600:TE_B 0
9 *126:10 *248:8 0.00124217
10 *177:28 *248:8 0.00124112
11 *192:16 *600:TE_B 0
*RES
1 *340:Y *248:8 45.7886 
2 *248:8 *600:TE_B 48.7241 
*END

*D_NET *249 0.00254689
*CONN
*I *601:TE_B I *D sg13g2_ebufn_8
*I *341:Y O *D sg13g2_nand3_1
*CAP
1 *601:TE_B 0.000358115
2 *341:Y 0.000437691
3 *249:10 0.000795806
4 *434:A *601:TE_B 0
5 *470:TE_B *601:TE_B 0
6 *600:TE_B *601:TE_B 0
7 *35:56 *249:10 0
8 *66:16 *249:10 0.000241604
9 *66:22 *249:10 0
10 *166:86 *601:TE_B 0
11 *166:86 *249:10 0.000532399
12 *215:8 *249:10 0.00018128
*RES
1 *341:Y *249:10 45.15 
2 *249:10 *601:TE_B 43.7801 
*END

*D_NET *250 0.00753438
*CONN
*I *602:TE_B I *D sg13g2_ebufn_8
*I *343:Y O *D sg13g2_nand2_1
*CAP
1 *602:TE_B 0
2 *343:Y 0
3 *250:12 0.00227886
4 *250:6 0.00227886
5 *481:A *250:12 0
6 *535:A *250:12 0
7 *32:15 *250:12 0.000180021
8 *36:35 *250:12 7.44263e-05
9 *38:10 *250:12 0.000758831
10 *38:31 *250:12 0
11 *39:16 *250:12 0.00155067
12 *75:12 *250:12 0
13 *166:38 *250:12 0.000285622
14 *184:14 *250:12 0
15 *185:41 *250:12 0.000127098
16 *239:16 *250:12 0
*RES
1 *343:Y *250:6 40 
2 *250:6 *250:12 41.4652 
3 *250:12 *602:TE_B 20 
*END

*D_NET *251 0.00861718
*CONN
*I *603:TE_B I *D sg13g2_ebufn_8
*I *344:Y O *D sg13g2_nand2_1
*CAP
1 *603:TE_B 0
2 *344:Y 0.000248196
3 *251:14 0.00220669
4 *251:8 0.00245489
5 *430:A *251:8 8.03692e-05
6 *525:A *251:8 0.000436725
7 *583:A *251:8 0
8 *20:29 *251:8 0
9 *20:35 *251:14 0
10 *28:17 *251:14 0
11 *58:17 *251:14 0
12 *62:21 *251:14 0
13 *68:17 *251:8 0
14 *98:12 *251:14 0
15 *101:8 *251:14 0
16 *103:8 *251:14 0
17 *112:19 *251:14 0
18 *164:10 *251:14 0
19 *172:32 *251:8 0
20 *172:38 *251:14 0
21 *172:79 *251:14 0
22 *184:22 *251:14 0
23 *184:30 *251:14 0
24 *196:12 *251:14 0
25 *242:16 *251:14 0.00128615
26 *242:25 *251:14 0.00124526
27 *242:36 *251:14 0.000658895
*RES
1 *344:Y *251:8 42.9149 
2 *251:8 *251:14 45.6058 
3 *251:14 *603:TE_B 20 
*END

*D_NET *252 0.00834281
*CONN
*I *604:TE_B I *D sg13g2_ebufn_8
*I *345:Y O *D sg13g2_nand2_1
*CAP
1 *604:TE_B 0
2 *345:Y 0.000455289
3 *252:18 0.00170229
4 *252:10 0.00215758
5 *505:TE_B *252:18 0
6 *604:A *252:18 0
7 *145:16 *252:18 0.00129644
8 *170:22 *252:10 0.000697839
9 *170:22 *252:18 0
10 *172:24 *252:10 0
11 *172:38 *252:18 0.00133477
12 *172:64 *252:18 0
13 *182:40 *252:10 0.0006986
*RES
1 *345:Y *252:10 45.9843 
2 *252:10 *252:18 37.6748 
3 *252:18 *604:TE_B 20 
*END

*D_NET *253 0.00160301
*CONN
*I *605:TE_B I *D sg13g2_ebufn_8
*I *346:Y O *D sg13g2_nand3_1
*CAP
1 *605:TE_B 0.000669973
2 *346:Y 7.56895e-05
3 *253:8 0.000745663
4 *605:A *605:TE_B 0.000111685
5 *85:8 *605:TE_B 0
6 *166:48 *253:8 0
*RES
1 *346:Y *253:8 40.5974 
2 *253:8 *605:TE_B 45.2942 
*END

*D_NET *254 0.00722563
*CONN
*I *606:TE_B I *D sg13g2_ebufn_8
*I *348:Y O *D sg13g2_nand2_1
*CAP
1 *606:TE_B 0
2 *348:Y 0.000584867
3 *254:22 0.000401154
4 *254:14 0.0025589
5 *254:10 0.00274261
6 *348:B *254:10 0.000175635
7 *606:A *254:22 0
8 *28:17 *254:22 0
9 *34:30 *254:10 0
10 *126:22 *254:10 0.000368943
11 *157:8 *254:22 0
12 *162:20 *254:14 0
13 *167:10 *254:10 0
14 *188:27 *254:10 0
15 *199:41 *254:10 0.000393512
16 *242:16 *254:22 0
17 *243:10 *254:10 0
*RES
1 *348:Y *254:10 46.2933 
2 *254:10 *254:14 40.8678 
3 *254:14 *254:22 43.0849 
4 *254:22 *606:TE_B 20 
*END

*D_NET *255 0.00573295
*CONN
*I *607:TE_B I *D sg13g2_ebufn_8
*I *349:Y O *D sg13g2_nand2_1
*CAP
1 *607:TE_B 0
2 *349:Y 8.70572e-05
3 *255:16 0.00127929
4 *255:8 0.00136635
5 *344:A *255:8 0.000111286
6 *344:B *255:16 7.51285e-05
7 *349:A *255:8 1.54008e-05
8 *607:A *255:16 0
9 *33:13 *255:8 0
10 *36:35 *255:16 0.000914418
11 *38:45 *255:16 0.00101701
12 *83:18 *255:16 0
13 *112:45 *255:16 0
14 *157:8 *255:16 0
15 *157:14 *255:16 0
16 *161:14 *255:16 0.000241915
17 *161:24 *255:16 0
18 *184:67 *255:16 0.000545095
19 *247:16 *255:16 7.99992e-05
*RES
1 *349:Y *255:8 40.7519 
2 *255:8 *255:16 34.523 
3 *255:16 *607:TE_B 20 
*END
