*SPEF "ieee 1481-1999"
*DESIGN "heichips25_internal"
*DATE "21:01:14 Monday March 23, 2026"
*VENDOR "The OpenROAD Project"
*PROGRAM "OpenROAD"
*VERSION "dcf36133a369abc8f3c5e5738cd4d82e4903c0e0"
*DESIGN_FLOW "NAME_SCOPE LOCAL" "PIN_CAP NONE"
*DIVIDER /
*DELIMITER :
*BUS_DELIMITER []
*T_UNIT 1 NS
*C_UNIT 1 PF
*R_UNIT 1 OHM
*L_UNIT 1 HENRY

*NAME_MAP
*3 analog_pin0
*4 analog_pin1
*5 analog_pin2
*6 clk
*7 ena
*8 rst_n
*9 ui_in[0]
*10 ui_in[1]
*11 ui_in[2]
*12 ui_in[3]
*13 ui_in[4]
*14 ui_in[5]
*15 ui_in[6]
*16 ui_in[7]
*17 uio_in[0]
*18 uio_in[1]
*19 uio_in[2]
*20 uio_in[3]
*21 uio_in[4]
*22 uio_in[5]
*23 uio_in[6]
*24 uio_in[7]
*25 uio_oe[0]
*26 uio_oe[1]
*27 uio_oe[2]
*28 uio_oe[3]
*29 uio_oe[4]
*30 uio_oe[5]
*31 uio_oe[6]
*32 uio_oe[7]
*33 uio_out[0]
*34 uio_out[1]
*35 uio_out[2]
*36 uio_out[3]
*37 uio_out[4]
*38 uio_out[5]
*39 uio_out[6]
*40 uio_out[7]
*41 uo_out[0]
*42 uo_out[1]
*43 uo_out[2]
*44 uo_out[3]
*45 uo_out[4]
*46 uo_out[5]
*47 uo_out[6]
*48 uo_out[7]
*51 _000_
*52 _001_
*53 _002_
*54 _003_
*55 _004_
*56 _005_
*57 _006_
*58 _007_
*59 _008_
*60 _009_
*61 _010_
*62 _011_
*63 _012_
*64 _013_
*65 _014_
*66 _015_
*67 _016_
*68 _017_
*69 _017__regs
*70 _018_
*71 _019_
*72 _020_
*73 _021_
*74 _022_
*75 _023_
*76 _024_
*77 _025_
*78 _026_
*79 _027_
*80 _028_
*81 _029_
*82 _030_
*83 _031_
*84 _032_
*85 _033_
*86 _034_
*87 _035_
*88 _036_
*89 _037_
*90 _038_
*91 _039_
*92 _040_
*93 _041_
*94 _042_
*95 _043_
*96 _044_
*97 _045_
*98 _046_
*99 _047_
*100 _048_
*101 _049_
*102 _050_
*103 _051_
*104 _052_
*105 _053_
*106 _054_
*107 _055_
*108 _056_
*109 _057_
*110 _058_
*111 _059_
*112 _060_
*113 _061_
*114 _062_
*115 _063_
*116 _064_
*117 _065_
*118 _066_
*119 _067_
*120 _068_
*121 _069_
*122 _070_
*123 _071_
*124 _072_
*125 _073_
*126 _074_
*127 _075_
*128 _076_
*129 _077_
*130 _078_
*131 _079_
*132 _080_
*133 _081_
*134 _082_
*135 _083_
*136 _084_
*137 _085_
*138 _086_
*139 _087_
*140 _088_
*141 _089_
*142 _090_
*143 _091_
*144 _092_
*145 _093_
*146 _094_
*147 _095_
*148 _096_
*149 _097_
*150 _098_
*151 _099_
*152 _100_
*153 _101_
*154 _102_
*155 _103_
*156 _104_
*157 _105_
*158 _106_
*159 _107_
*160 _108_
*161 _109_
*162 _110_
*163 _111_
*164 _112_
*165 _113_
*166 _114_
*167 _115_
*168 _116_
*169 _117_
*170 _118_
*171 _119_
*172 _120_
*173 _121_
*174 _122_
*175 _123_
*176 _124_
*177 _125_
*178 _126_
*179 _127_
*180 _128_
*181 _129_
*182 _130_
*183 _131_
*184 _132_
*185 _133_
*186 _134_
*187 _135_
*188 _136_
*189 _137_
*190 _138_
*191 _139_
*192 _140_
*193 _141_
*194 _142_
*195 _143_
*196 _144_
*197 _145_
*198 _146_
*199 _147_
*200 _148_
*201 _149_
*202 _150_
*203 _151_
*204 _152_
*205 _153_
*206 _154_
*207 _155_
*208 _156_
*209 _157_
*210 _158_
*211 _159_
*212 _160_
*213 _161_
*214 _162_
*215 _163_
*216 _164_
*217 _165_
*218 _166_
*219 _167_
*220 _168_
*221 _169_
*222 _170_
*223 _171_
*224 _172_
*225 _173_
*226 _174_
*227 _175_
*228 _176_
*229 _177_
*230 _178_
*231 _179_
*232 _180_
*233 _181_
*234 _182_
*235 _183_
*236 _184_
*237 _185_
*238 _186_
*239 _187_
*240 _188_
*241 _189_
*242 _190_
*243 _191_
*244 _192_
*245 _193_
*246 _194_
*247 _195_
*248 _196_
*249 _197_
*250 _198_
*251 _199_
*252 _200_
*253 _201_
*254 _202_
*255 _203_
*256 _204_
*257 _205_
*258 _206_
*259 _207_
*260 _208_
*261 _209_
*262 _210_
*263 _211_
*264 _212_
*265 _213_
*266 _214_
*267 _215_
*268 _216_
*269 _217_
*270 a_rdata\[0\]
*271 a_rdata\[1\]
*272 a_rdata\[2\]
*273 a_rdata\[3\]
*274 b_rdata\[0\]
*275 b_rdata\[1\]
*276 b_rdata\[2\]
*277 b_rdata\[3\]
*278 bit_mask\[0\]
*279 bit_mask\[1\]
*280 bit_mask\[2\]
*281 bit_mask\[3\]
*282 clk0_out
*283 clk1_out
*284 clk2_out
*285 clk_delayed
*286 clk_regs
*287 clknet_0__017_
*288 clknet_0__017__regs
*289 clknet_0_clk
*290 clknet_0_clk_delayed
*291 clknet_0_clk_regs
*292 clknet_1_0__leaf__017_
*293 clknet_1_0__leaf__017__regs
*294 clknet_1_0__leaf_clk
*295 clknet_1_1__leaf__017__regs
*296 clknet_1_1__leaf_clk
*297 clknet_2_0__leaf_clk_delayed
*298 clknet_2_1__leaf_clk_delayed
*299 clknet_2_2__leaf_clk_delayed
*300 clknet_2_3__leaf_clk_delayed
*301 clknet_4_0_0_clk_regs
*302 clknet_4_10_0_clk_regs
*303 clknet_4_11_0_clk_regs
*304 clknet_4_12_0_clk_regs
*305 clknet_4_13_0_clk_regs
*306 clknet_4_14_0_clk_regs
*307 clknet_4_15_0_clk_regs
*308 clknet_4_1_0_clk_regs
*309 clknet_4_2_0_clk_regs
*310 clknet_4_3_0_clk_regs
*311 clknet_4_4_0_clk_regs
*312 clknet_4_5_0_clk_regs
*313 clknet_4_6_0_clk_regs
*314 clknet_4_7_0_clk_regs
*315 clknet_4_8_0_clk_regs
*316 clknet_4_9_0_clk_regs
*317 clknet_5_0__leaf_clk_regs
*318 clknet_5_10__leaf_clk_regs
*319 clknet_5_11__leaf_clk_regs
*320 clknet_5_12__leaf_clk_regs
*321 clknet_5_13__leaf_clk_regs
*322 clknet_5_14__leaf_clk_regs
*323 clknet_5_15__leaf_clk_regs
*324 clknet_5_16__leaf_clk_regs
*325 clknet_5_17__leaf_clk_regs
*326 clknet_5_18__leaf_clk_regs
*327 clknet_5_19__leaf_clk_regs
*328 clknet_5_1__leaf_clk_regs
*329 clknet_5_20__leaf_clk_regs
*330 clknet_5_21__leaf_clk_regs
*331 clknet_5_22__leaf_clk_regs
*332 clknet_5_23__leaf_clk_regs
*333 clknet_5_24__leaf_clk_regs
*334 clknet_5_25__leaf_clk_regs
*335 clknet_5_26__leaf_clk_regs
*336 clknet_5_27__leaf_clk_regs
*337 clknet_5_28__leaf_clk_regs
*338 clknet_5_29__leaf_clk_regs
*339 clknet_5_2__leaf_clk_regs
*340 clknet_5_30__leaf_clk_regs
*341 clknet_5_31__leaf_clk_regs
*342 clknet_5_3__leaf_clk_regs
*343 clknet_5_4__leaf_clk_regs
*344 clknet_5_5__leaf_clk_regs
*345 clknet_5_6__leaf_clk_regs
*346 clknet_5_7__leaf_clk_regs
*347 clknet_5_8__leaf_clk_regs
*348 clknet_5_9__leaf_clk_regs
*349 clknet_leaf_0_clk
*350 clknet_leaf_1_clk
*351 clknet_leaf_2_clk
*352 clknet_leaf_3_clk
*353 clknet_leaf_4_clk
*354 clknet_leaf_5_clk
*355 clknet_leaf_6_clk
*356 data\[0\]
*357 data\[100\]
*358 data\[101\]
*359 data\[102\]
*360 data\[103\]
*361 data\[104\]
*362 data\[105\]
*363 data\[106\]
*364 data\[107\]
*365 data\[108\]
*366 data\[109\]
*367 data\[10\]
*368 data\[110\]
*369 data\[111\]
*370 data\[112\]
*371 data\[113\]
*372 data\[114\]
*373 data\[115\]
*374 data\[116\]
*375 data\[117\]
*376 data\[118\]
*377 data\[119\]
*378 data\[11\]
*379 data\[120\]
*380 data\[121\]
*381 data\[122\]
*382 data\[123\]
*383 data\[124\]
*384 data\[125\]
*385 data\[12\]
*386 data\[13\]
*387 data\[14\]
*388 data\[15\]
*389 data\[16\]
*390 data\[17\]
*391 data\[18\]
*392 data\[19\]
*393 data\[1\]
*394 data\[20\]
*395 data\[21\]
*396 data\[22\]
*397 data\[23\]
*398 data\[24\]
*399 data\[25\]
*400 data\[26\]
*401 data\[27\]
*402 data\[28\]
*403 data\[29\]
*404 data\[2\]
*405 data\[30\]
*406 data\[31\]
*407 data\[32\]
*408 data\[33\]
*409 data\[34\]
*410 data\[35\]
*411 data\[36\]
*412 data\[37\]
*413 data\[38\]
*414 data\[39\]
*415 data\[3\]
*416 data\[40\]
*417 data\[41\]
*418 data\[42\]
*419 data\[43\]
*420 data\[44\]
*421 data\[45\]
*422 data\[46\]
*423 data\[47\]
*424 data\[48\]
*425 data\[49\]
*426 data\[4\]
*427 data\[50\]
*428 data\[51\]
*429 data\[52\]
*430 data\[53\]
*431 data\[54\]
*432 data\[55\]
*433 data\[56\]
*434 data\[57\]
*435 data\[58\]
*436 data\[59\]
*437 data\[5\]
*438 data\[60\]
*439 data\[61\]
*440 data\[62\]
*441 data\[63\]
*442 data\[64\]
*443 data\[65\]
*444 data\[66\]
*445 data\[67\]
*446 data\[68\]
*447 data\[69\]
*448 data\[6\]
*449 data\[70\]
*450 data\[71\]
*451 data\[72\]
*452 data\[73\]
*453 data\[74\]
*454 data\[75\]
*455 data\[76\]
*456 data\[77\]
*457 data\[78\]
*458 data\[79\]
*459 data\[7\]
*460 data\[80\]
*461 data\[81\]
*462 data\[82\]
*463 data\[83\]
*464 data\[84\]
*465 data\[85\]
*466 data\[86\]
*467 data\[87\]
*468 data\[88\]
*469 data\[89\]
*470 data\[8\]
*471 data\[90\]
*472 data\[91\]
*473 data\[92\]
*474 data\[93\]
*475 data\[94\]
*476 data\[95\]
*477 data\[96\]
*478 data\[97\]
*479 data\[98\]
*480 data\[99\]
*481 data\[9\]
*482 delaynet_0_clk
*483 delaynet_10_clk
*484 delaynet_11_clk
*485 delaynet_12_clk
*486 delaynet_13_clk
*487 delaynet_14_clk
*488 delaynet_15_clk
*489 delaynet_16_clk
*490 delaynet_17_clk
*491 delaynet_18_clk
*492 delaynet_19_clk
*493 delaynet_1_clk
*494 delaynet_20_clk
*495 delaynet_21_clk
*496 delaynet_22_clk
*497 delaynet_23_clk
*498 delaynet_24_clk
*499 delaynet_25_clk
*500 delaynet_26_clk
*501 delaynet_27_clk
*502 delaynet_28_clk
*503 delaynet_2_clk
*504 delaynet_3_clk
*505 delaynet_4_clk
*506 delaynet_5_clk
*507 delaynet_6_clk
*508 delaynet_7_clk
*509 delaynet_8_clk
*510 delaynet_9_clk
*511 mem_phy_addr\[0\]
*512 mem_phy_addr\[1\]
*513 mem_phy_addr\[2\]
*514 mem_phy_addr\[3\]
*515 mem_phy_din\[0\]
*516 mem_phy_din\[1\]
*517 mem_phy_din\[2\]
*518 mem_phy_din\[3\]
*519 mem_phy_men
*520 mem_phy_wen
*521 net1
*522 net10
*523 net100
*524 net101
*525 net102
*526 net103
*527 net104
*528 net105
*529 net106
*530 net107
*531 net108
*532 net109
*533 net11
*534 net110
*535 net111
*536 net112
*537 net113
*538 net114
*539 net115
*540 net116
*541 net117
*542 net118
*543 net119
*544 net12
*545 net120
*546 net121
*547 net122
*548 net123
*549 net124
*550 net125
*551 net126
*552 net127
*553 net128
*554 net129
*555 net13
*556 net14
*557 net15
*558 net16
*559 net17
*560 net18
*561 net19
*562 net2
*563 net20
*564 net21
*565 net22
*566 net23
*567 net24
*568 net25
*569 net26
*570 net27
*571 net28
*572 net29
*573 net3
*574 net30
*575 net31
*576 net32
*577 net33
*578 net34
*579 net35
*580 net36
*581 net37
*582 net38
*583 net39
*584 net4
*585 net40
*586 net41
*587 net42
*588 net43
*589 net44
*590 net45
*591 net46
*592 net47
*593 net48
*594 net49
*595 net5
*596 net50
*597 net51
*598 net52
*599 net53
*600 net54
*601 net55
*602 net56
*603 net57
*604 net58
*605 net59
*606 net6
*607 net60
*608 net61
*609 net62
*610 net63
*611 net64
*612 net65
*613 net66
*614 net67
*615 net68
*616 net69
*617 net7
*618 net70
*619 net71
*620 net72
*621 net73
*622 net74
*623 net75
*624 net76
*625 net77
*626 net78
*627 net79
*628 net8
*629 net80
*630 net81
*631 net82
*632 net83
*633 net84
*634 net85
*635 net86
*636 net87
*637 net88
*638 net89
*639 net9
*640 net90
*641 net91
*642 net92
*643 net93
*644 net94
*645 net95
*646 net96
*647 net97
*648 net98
*649 net99
*650 osc_out
*651 stable
*652 u_custom_cells\.u_final_mux\.A
*653 u_custom_cells\.u_final_mux\.B
*654 u_custom_cells\.u_final_mux\.Y
*655 u_custom_cells\.u_latch0\.D
*656 u_custom_cells\.u_latmux\.B
*657 u_mem\.A_REN
*658 u_mem\.a_addr_q\[0\]
*659 u_mem\.a_addr_q\[1\]
*660 u_mem\.a_addr_q\[2\]
*661 u_mem\.a_addr_q\[3\]
*662 u_mem\.a_bm_q\[0\]
*663 u_mem\.a_bm_q\[1\]
*664 u_mem\.a_bm_q\[2\]
*665 u_mem\.a_bm_q\[3\]
*666 u_mem\.a_buf\[0\]
*667 u_mem\.a_buf\[1\]
*668 u_mem\.a_buf\[2\]
*669 u_mem\.a_buf\[3\]
*670 u_mem\.a_en_q
*671 u_mem\.a_rdata_d1\[0\]
*672 u_mem\.a_rdata_d1\[1\]
*673 u_mem\.a_rdata_d1\[2\]
*674 u_mem\.a_rdata_d1\[3\]
*675 u_mem\.a_wdata_q\[0\]
*676 u_mem\.a_wdata_q\[1\]
*677 u_mem\.a_wdata_q\[2\]
*678 u_mem\.a_wdata_q\[3\]
*679 u_mem\.a_we_q
*680 u_mem\.b_addr_q\[0\]
*681 u_mem\.b_addr_q\[1\]
*682 u_mem\.b_addr_q\[2\]
*683 u_mem\.b_addr_q\[3\]
*684 u_mem\.b_bm_q\[0\]
*685 u_mem\.b_bm_q\[1\]
*686 u_mem\.b_bm_q\[2\]
*687 u_mem\.b_bm_q\[3\]
*688 u_mem\.b_buf\[0\]
*689 u_mem\.b_buf\[1\]
*690 u_mem\.b_buf\[2\]
*691 u_mem\.b_buf\[3\]
*692 u_mem\.b_en_q
*693 u_mem\.b_wdata_q\[0\]
*694 u_mem\.b_wdata_q\[1\]
*695 u_mem\.b_wdata_q\[2\]
*696 u_mem\.b_wdata_q\[3\]
*697 u_mem\.b_we_q
*698 u_mem\.exec_port
*699 u_mem\.exec_rd
*700 u_mem\.phase
*701 u_shift_reg\.bit_count\[0\]
*702 u_shift_reg\.bit_count\[1\]
*703 u_shift_reg\.bit_count\[2\]
*704 u_shift_reg\.bit_count\[3\]
*705 u_shift_reg\.bit_count\[4\]
*706 u_shift_reg\.bit_count\[5\]
*707 u_shift_reg\.bit_count\[6\]
*708 u_shift_reg\.locked
*709 ANTENNA_1
*710 FILLER_0_1005
*711 FILLER_0_1012
*712 FILLER_0_1019
*713 FILLER_0_1026
*714 FILLER_0_1028
*715 FILLER_0_105
*716 FILLER_0_107
*717 FILLER_0_121
*718 FILLER_0_159
*719 FILLER_0_170
*720 FILLER_0_177
*721 FILLER_0_184
*722 FILLER_0_188
*723 FILLER_0_200
*724 FILLER_0_204
*725 FILLER_0_224
*726 FILLER_0_231
*727 FILLER_0_235
*728 FILLER_0_263
*729 FILLER_0_265
*730 FILLER_0_303
*731 FILLER_0_351
*732 FILLER_0_358
*733 FILLER_0_36
*734 FILLER_0_372
*735 FILLER_0_379
*736 FILLER_0_38
*737 FILLER_0_386
*738 FILLER_0_393
*739 FILLER_0_405
*740 FILLER_0_407
*741 FILLER_0_43
*742 FILLER_0_445
*743 FILLER_0_45
*744 FILLER_0_452
*745 FILLER_0_459
*746 FILLER_0_466
*747 FILLER_0_494
*748 FILLER_0_501
*749 FILLER_0_508
*750 FILLER_0_515
*751 FILLER_0_522
*752 FILLER_0_529
*753 FILLER_0_536
*754 FILLER_0_543
*755 FILLER_0_550
*756 FILLER_0_557
*757 FILLER_0_564
*758 FILLER_0_571
*759 FILLER_0_578
*760 FILLER_0_585
*761 FILLER_0_592
*762 FILLER_0_599
*763 FILLER_0_606
*764 FILLER_0_613
*765 FILLER_0_620
*766 FILLER_0_627
*767 FILLER_0_634
*768 FILLER_0_641
*769 FILLER_0_648
*770 FILLER_0_655
*771 FILLER_0_662
*772 FILLER_0_669
*773 FILLER_0_676
*774 FILLER_0_683
*775 FILLER_0_690
*776 FILLER_0_697
*777 FILLER_0_704
*778 FILLER_0_711
*779 FILLER_0_718
*780 FILLER_0_725
*781 FILLER_0_73
*782 FILLER_0_732
*783 FILLER_0_739
*784 FILLER_0_746
*785 FILLER_0_753
*786 FILLER_0_760
*787 FILLER_0_767
*788 FILLER_0_774
*789 FILLER_0_781
*790 FILLER_0_788
*791 FILLER_0_795
*792 FILLER_0_802
*793 FILLER_0_809
*794 FILLER_0_816
*795 FILLER_0_823
*796 FILLER_0_830
*797 FILLER_0_837
*798 FILLER_0_844
*799 FILLER_0_851
*800 FILLER_0_858
*801 FILLER_0_865
*802 FILLER_0_872
*803 FILLER_0_879
*804 FILLER_0_886
*805 FILLER_0_893
*806 FILLER_0_900
*807 FILLER_0_907
*808 FILLER_0_914
*809 FILLER_0_921
*810 FILLER_0_928
*811 FILLER_0_935
*812 FILLER_0_942
*813 FILLER_0_949
*814 FILLER_0_956
*815 FILLER_0_963
*816 FILLER_0_970
*817 FILLER_0_977
*818 FILLER_0_984
*819 FILLER_0_991
*820 FILLER_0_998
*821 FILLER_10_0
*822 FILLER_10_1005
*823 FILLER_10_1012
*824 FILLER_10_1019
*825 FILLER_10_1026
*826 FILLER_10_1028
*827 FILLER_10_43
*828 FILLER_10_45
*829 FILLER_10_774
*830 FILLER_10_781
*831 FILLER_10_788
*832 FILLER_10_795
*833 FILLER_10_802
*834 FILLER_10_809
*835 FILLER_10_816
*836 FILLER_10_823
*837 FILLER_10_830
*838 FILLER_10_837
*839 FILLER_10_844
*840 FILLER_10_851
*841 FILLER_10_858
*842 FILLER_10_865
*843 FILLER_10_872
*844 FILLER_10_879
*845 FILLER_10_886
*846 FILLER_10_893
*847 FILLER_10_900
*848 FILLER_10_907
*849 FILLER_10_914
*850 FILLER_10_921
*851 FILLER_10_928
*852 FILLER_10_935
*853 FILLER_10_942
*854 FILLER_10_949
*855 FILLER_10_956
*856 FILLER_10_963
*857 FILLER_10_970
*858 FILLER_10_977
*859 FILLER_10_984
*860 FILLER_10_991
*861 FILLER_10_998
*862 FILLER_11_0
*863 FILLER_11_1006
*864 FILLER_11_1013
*865 FILLER_11_1020
*866 FILLER_11_1027
*867 FILLER_11_2
*868 FILLER_11_46
*869 FILLER_11_775
*870 FILLER_11_782
*871 FILLER_11_789
*872 FILLER_11_796
*873 FILLER_11_8
*874 FILLER_11_803
*875 FILLER_11_810
*876 FILLER_11_817
*877 FILLER_11_824
*878 FILLER_11_831
*879 FILLER_11_838
*880 FILLER_11_845
*881 FILLER_11_852
*882 FILLER_11_859
*883 FILLER_11_866
*884 FILLER_11_873
*885 FILLER_11_880
*886 FILLER_11_887
*887 FILLER_11_894
*888 FILLER_11_901
*889 FILLER_11_908
*890 FILLER_11_915
*891 FILLER_11_922
*892 FILLER_11_929
*893 FILLER_11_936
*894 FILLER_11_943
*895 FILLER_11_950
*896 FILLER_11_957
*897 FILLER_11_964
*898 FILLER_11_971
*899 FILLER_11_978
*900 FILLER_11_985
*901 FILLER_11_992
*902 FILLER_11_999
*903 FILLER_12_1005
*904 FILLER_12_1012
*905 FILLER_12_1019
*906 FILLER_12_1026
*907 FILLER_12_1028
*908 FILLER_12_11
*909 FILLER_12_49
*910 FILLER_12_71
*911 FILLER_12_774
*912 FILLER_12_781
*913 FILLER_12_788
*914 FILLER_12_795
*915 FILLER_12_802
*916 FILLER_12_809
*917 FILLER_12_816
*918 FILLER_12_823
*919 FILLER_12_830
*920 FILLER_12_837
*921 FILLER_12_844
*922 FILLER_12_851
*923 FILLER_12_858
*924 FILLER_12_865
*925 FILLER_12_872
*926 FILLER_12_879
*927 FILLER_12_886
*928 FILLER_12_893
*929 FILLER_12_900
*930 FILLER_12_907
*931 FILLER_12_914
*932 FILLER_12_921
*933 FILLER_12_928
*934 FILLER_12_935
*935 FILLER_12_942
*936 FILLER_12_949
*937 FILLER_12_956
*938 FILLER_12_963
*939 FILLER_12_970
*940 FILLER_12_977
*941 FILLER_12_984
*942 FILLER_12_991
*943 FILLER_12_998
*944 FILLER_13_0
*945 FILLER_13_1001
*946 FILLER_13_1008
*947 FILLER_13_1015
*948 FILLER_13_1022
*949 FILLER_13_16
*950 FILLER_13_45
*951 FILLER_13_749
*952 FILLER_13_776
*953 FILLER_13_791
*954 FILLER_13_798
*955 FILLER_13_805
*956 FILLER_13_812
*957 FILLER_13_819
*958 FILLER_13_826
*959 FILLER_13_833
*960 FILLER_13_840
*961 FILLER_13_847
*962 FILLER_13_854
*963 FILLER_13_861
*964 FILLER_13_868
*965 FILLER_13_875
*966 FILLER_13_882
*967 FILLER_13_889
*968 FILLER_13_896
*969 FILLER_13_903
*970 FILLER_13_910
*971 FILLER_13_917
*972 FILLER_13_924
*973 FILLER_13_931
*974 FILLER_13_938
*975 FILLER_13_945
*976 FILLER_13_952
*977 FILLER_13_959
*978 FILLER_13_966
*979 FILLER_13_973
*980 FILLER_13_980
*981 FILLER_13_987
*982 FILLER_13_994
*983 FILLER_14_1002
*984 FILLER_14_1009
*985 FILLER_14_1016
*986 FILLER_14_1023
*987 FILLER_14_1027
*988 FILLER_14_27
*989 FILLER_14_749
*990 FILLER_14_792
*991 FILLER_14_799
*992 FILLER_14_806
*993 FILLER_14_813
*994 FILLER_14_820
*995 FILLER_14_827
*996 FILLER_14_834
*997 FILLER_14_841
*998 FILLER_14_848
*999 FILLER_14_855
*1000 FILLER_14_862
*1001 FILLER_14_869
*1002 FILLER_14_876
*1003 FILLER_14_883
*1004 FILLER_14_890
*1005 FILLER_14_897
*1006 FILLER_14_904
*1007 FILLER_14_911
*1008 FILLER_14_918
*1009 FILLER_14_925
*1010 FILLER_14_939
*1011 FILLER_14_946
*1012 FILLER_14_953
*1013 FILLER_14_960
*1014 FILLER_14_967
*1015 FILLER_14_974
*1016 FILLER_14_981
*1017 FILLER_14_988
*1018 FILLER_14_995
*1019 FILLER_15_0
*1020 FILLER_15_1001
*1021 FILLER_15_1008
*1022 FILLER_15_1015
*1023 FILLER_15_1022
*1024 FILLER_15_34
*1025 FILLER_15_749
*1026 FILLER_15_776
*1027 FILLER_15_783
*1028 FILLER_15_790
*1029 FILLER_15_797
*1030 FILLER_15_804
*1031 FILLER_15_811
*1032 FILLER_15_818
*1033 FILLER_15_825
*1034 FILLER_15_832
*1035 FILLER_15_839
*1036 FILLER_15_846
*1037 FILLER_15_853
*1038 FILLER_15_860
*1039 FILLER_15_867
*1040 FILLER_15_874
*1041 FILLER_15_881
*1042 FILLER_15_888
*1043 FILLER_15_895
*1044 FILLER_15_912
*1045 FILLER_15_919
*1046 FILLER_15_926
*1047 FILLER_15_954
*1048 FILLER_15_956
*1049 FILLER_15_994
*1050 FILLER_16_0
*1051 FILLER_16_1022
*1052 FILLER_16_43
*1053 FILLER_16_45
*1054 FILLER_16_749
*1055 FILLER_16_754
*1056 FILLER_16_761
*1057 FILLER_16_763
*1058 FILLER_16_777
*1059 FILLER_16_784
*1060 FILLER_16_791
*1061 FILLER_16_798
*1062 FILLER_16_805
*1063 FILLER_16_812
*1064 FILLER_16_816
*1065 FILLER_16_843
*1066 FILLER_16_850
*1067 FILLER_16_857
*1068 FILLER_16_861
*1069 FILLER_16_881
*1070 FILLER_16_919
*1071 FILLER_16_926
*1072 FILLER_16_960
*1073 FILLER_16_967
*1074 FILLER_17_1019
*1075 FILLER_17_1026
*1076 FILLER_17_1028
*1077 FILLER_17_749
*1078 FILLER_17_756
*1079 FILLER_17_763
*1080 FILLER_17_770
*1081 FILLER_17_777
*1082 FILLER_17_784
*1083 FILLER_17_791
*1084 FILLER_17_798
*1085 FILLER_17_805
*1086 FILLER_17_812
*1087 FILLER_17_819
*1088 FILLER_17_826
*1089 FILLER_17_833
*1090 FILLER_17_835
*1091 FILLER_17_900
*1092 FILLER_17_931
*1093 FILLER_17_945
*1094 FILLER_17_952
*1095 FILLER_17_954
*1096 FILLER_17_965
*1097 FILLER_17_969
*1098 FILLER_17_990
*1099 FILLER_18_762
*1100 FILLER_18_769
*1101 FILLER_18_776
*1102 FILLER_18_783
*1103 FILLER_18_790
*1104 FILLER_18_797
*1105 FILLER_18_804
*1106 FILLER_18_811
*1107 FILLER_18_818
*1108 FILLER_18_825
*1109 FILLER_18_827
*1110 FILLER_18_838
*1111 FILLER_18_845
*1112 FILLER_19_752
*1113 FILLER_19_756
*1114 FILLER_19_783
*1115 FILLER_19_790
*1116 FILLER_19_797
*1117 FILLER_19_804
*1118 FILLER_19_811
*1119 FILLER_19_818
*1120 FILLER_1_1003
*1121 FILLER_1_1010
*1122 FILLER_1_1017
*1123 FILLER_1_1024
*1124 FILLER_1_1028
*1125 FILLER_1_243
*1126 FILLER_1_272
*1127 FILLER_1_330
*1128 FILLER_1_337
*1129 FILLER_1_365
*1130 FILLER_1_394
*1131 FILLER_1_4
*1132 FILLER_1_422
*1133 FILLER_1_527
*1134 FILLER_1_534
*1135 FILLER_1_541
*1136 FILLER_1_548
*1137 FILLER_1_555
*1138 FILLER_1_562
*1139 FILLER_1_569
*1140 FILLER_1_576
*1141 FILLER_1_583
*1142 FILLER_1_590
*1143 FILLER_1_597
*1144 FILLER_1_604
*1145 FILLER_1_611
*1146 FILLER_1_618
*1147 FILLER_1_625
*1148 FILLER_1_632
*1149 FILLER_1_639
*1150 FILLER_1_646
*1151 FILLER_1_653
*1152 FILLER_1_660
*1153 FILLER_1_667
*1154 FILLER_1_674
*1155 FILLER_1_681
*1156 FILLER_1_688
*1157 FILLER_1_695
*1158 FILLER_1_702
*1159 FILLER_1_709
*1160 FILLER_1_716
*1161 FILLER_1_723
*1162 FILLER_1_730
*1163 FILLER_1_737
*1164 FILLER_1_744
*1165 FILLER_1_751
*1166 FILLER_1_758
*1167 FILLER_1_765
*1168 FILLER_1_772
*1169 FILLER_1_779
*1170 FILLER_1_786
*1171 FILLER_1_79
*1172 FILLER_1_793
*1173 FILLER_1_800
*1174 FILLER_1_807
*1175 FILLER_1_814
*1176 FILLER_1_821
*1177 FILLER_1_828
*1178 FILLER_1_835
*1179 FILLER_1_842
*1180 FILLER_1_849
*1181 FILLER_1_856
*1182 FILLER_1_863
*1183 FILLER_1_870
*1184 FILLER_1_877
*1185 FILLER_1_884
*1186 FILLER_1_891
*1187 FILLER_1_898
*1188 FILLER_1_905
*1189 FILLER_1_912
*1190 FILLER_1_919
*1191 FILLER_1_926
*1192 FILLER_1_933
*1193 FILLER_1_940
*1194 FILLER_1_947
*1195 FILLER_1_954
*1196 FILLER_1_961
*1197 FILLER_1_968
*1198 FILLER_1_975
*1199 FILLER_1_982
*1200 FILLER_1_989
*1201 FILLER_1_996
*1202 FILLER_20_19
*1203 FILLER_20_774
*1204 FILLER_20_781
*1205 FILLER_20_788
*1206 FILLER_20_795
*1207 FILLER_20_802
*1208 FILLER_20_809
*1209 FILLER_20_816
*1210 FILLER_20_823
*1211 FILLER_20_827
*1212 FILLER_20_839
*1213 FILLER_20_846
*1214 FILLER_20_850
*1215 FILLER_21_749
*1216 FILLER_21_756
*1217 FILLER_21_763
*1218 FILLER_21_770
*1219 FILLER_21_777
*1220 FILLER_21_784
*1221 FILLER_21_791
*1222 FILLER_21_798
*1223 FILLER_21_805
*1224 FILLER_21_812
*1225 FILLER_21_819
*1226 FILLER_21_823
*1227 FILLER_22_35
*1228 FILLER_22_749
*1229 FILLER_22_756
*1230 FILLER_22_763
*1231 FILLER_22_770
*1232 FILLER_22_777
*1233 FILLER_22_781
*1234 FILLER_22_796
*1235 FILLER_22_803
*1236 FILLER_22_810
*1237 FILLER_22_817
*1238 FILLER_22_824
*1239 FILLER_22_831
*1240 FILLER_22_838
*1241 FILLER_22_845
*1242 FILLER_23_749
*1243 FILLER_23_756
*1244 FILLER_23_763
*1245 FILLER_23_765
*1246 FILLER_23_791
*1247 FILLER_23_795
*1248 FILLER_23_823
*1249 FILLER_23_830
*1250 FILLER_23_837
*1251 FILLER_23_844
*1252 FILLER_23_851
*1253 FILLER_24_27
*1254 FILLER_24_41
*1255 FILLER_24_749
*1256 FILLER_24_756
*1257 FILLER_24_763
*1258 FILLER_24_770
*1259 FILLER_24_777
*1260 FILLER_24_784
*1261 FILLER_24_791
*1262 FILLER_24_798
*1263 FILLER_24_800
*1264 FILLER_24_805
*1265 FILLER_24_812
*1266 FILLER_24_819
*1267 FILLER_24_826
*1268 FILLER_24_833
*1269 FILLER_24_840
*1270 FILLER_24_847
*1271 FILLER_24_851
*1272 FILLER_25_0
*1273 FILLER_25_45
*1274 FILLER_25_752
*1275 FILLER_25_759
*1276 FILLER_25_766
*1277 FILLER_25_773
*1278 FILLER_25_780
*1279 FILLER_25_787
*1280 FILLER_25_794
*1281 FILLER_25_801
*1282 FILLER_25_808
*1283 FILLER_25_815
*1284 FILLER_25_822
*1285 FILLER_25_829
*1286 FILLER_25_836
*1287 FILLER_25_843
*1288 FILLER_25_850
*1289 FILLER_26_46
*1290 FILLER_26_774
*1291 FILLER_26_781
*1292 FILLER_26_788
*1293 FILLER_26_795
*1294 FILLER_26_802
*1295 FILLER_26_809
*1296 FILLER_26_816
*1297 FILLER_26_823
*1298 FILLER_26_830
*1299 FILLER_26_837
*1300 FILLER_26_844
*1301 FILLER_26_851
*1302 FILLER_27_35
*1303 FILLER_27_749
*1304 FILLER_27_756
*1305 FILLER_27_763
*1306 FILLER_27_770
*1307 FILLER_27_777
*1308 FILLER_27_784
*1309 FILLER_27_791
*1310 FILLER_27_798
*1311 FILLER_27_805
*1312 FILLER_27_812
*1313 FILLER_27_819
*1314 FILLER_27_833
*1315 FILLER_27_840
*1316 FILLER_27_847
*1317 FILLER_27_851
*1318 FILLER_28_13
*1319 FILLER_28_50
*1320 FILLER_28_61
*1321 FILLER_28_72
*1322 FILLER_28_749
*1323 FILLER_28_756
*1324 FILLER_28_763
*1325 FILLER_28_770
*1326 FILLER_28_777
*1327 FILLER_28_784
*1328 FILLER_28_791
*1329 FILLER_28_798
*1330 FILLER_28_805
*1331 FILLER_28_812
*1332 FILLER_28_819
*1333 FILLER_28_823
*1334 FILLER_29_749
*1335 FILLER_29_756
*1336 FILLER_29_763
*1337 FILLER_29_770
*1338 FILLER_29_777
*1339 FILLER_29_784
*1340 FILLER_29_796
*1341 FILLER_29_803
*1342 FILLER_29_810
*1343 FILLER_29_817
*1344 FILLER_29_824
*1345 FILLER_2_1003
*1346 FILLER_2_1010
*1347 FILLER_2_1017
*1348 FILLER_2_1024
*1349 FILLER_2_1028
*1350 FILLER_2_118
*1351 FILLER_2_120
*1352 FILLER_2_161
*1353 FILLER_2_165
*1354 FILLER_2_193
*1355 FILLER_2_200
*1356 FILLER_2_202
*1357 FILLER_2_239
*1358 FILLER_2_243
*1359 FILLER_2_253
*1360 FILLER_2_257
*1361 FILLER_2_268
*1362 FILLER_2_272
*1363 FILLER_2_284
*1364 FILLER_2_291
*1365 FILLER_2_298
*1366 FILLER_2_309
*1367 FILLER_2_363
*1368 FILLER_2_367
*1369 FILLER_2_395
*1370 FILLER_2_402
*1371 FILLER_2_409
*1372 FILLER_2_43
*1373 FILLER_2_437
*1374 FILLER_2_444
*1375 FILLER_2_448
*1376 FILLER_2_45
*1377 FILLER_2_482
*1378 FILLER_2_489
*1379 FILLER_2_513
*1380 FILLER_2_520
*1381 FILLER_2_527
*1382 FILLER_2_534
*1383 FILLER_2_541
*1384 FILLER_2_548
*1385 FILLER_2_555
*1386 FILLER_2_562
*1387 FILLER_2_569
*1388 FILLER_2_576
*1389 FILLER_2_583
*1390 FILLER_2_590
*1391 FILLER_2_597
*1392 FILLER_2_604
*1393 FILLER_2_611
*1394 FILLER_2_618
*1395 FILLER_2_625
*1396 FILLER_2_632
*1397 FILLER_2_639
*1398 FILLER_2_646
*1399 FILLER_2_65
*1400 FILLER_2_653
*1401 FILLER_2_660
*1402 FILLER_2_667
*1403 FILLER_2_674
*1404 FILLER_2_681
*1405 FILLER_2_688
*1406 FILLER_2_695
*1407 FILLER_2_702
*1408 FILLER_2_709
*1409 FILLER_2_716
*1410 FILLER_2_723
*1411 FILLER_2_730
*1412 FILLER_2_737
*1413 FILLER_2_744
*1414 FILLER_2_751
*1415 FILLER_2_758
*1416 FILLER_2_765
*1417 FILLER_2_772
*1418 FILLER_2_779
*1419 FILLER_2_786
*1420 FILLER_2_793
*1421 FILLER_2_800
*1422 FILLER_2_807
*1423 FILLER_2_814
*1424 FILLER_2_821
*1425 FILLER_2_828
*1426 FILLER_2_835
*1427 FILLER_2_842
*1428 FILLER_2_849
*1429 FILLER_2_856
*1430 FILLER_2_86
*1431 FILLER_2_863
*1432 FILLER_2_870
*1433 FILLER_2_877
*1434 FILLER_2_884
*1435 FILLER_2_891
*1436 FILLER_2_898
*1437 FILLER_2_905
*1438 FILLER_2_912
*1439 FILLER_2_919
*1440 FILLER_2_926
*1441 FILLER_2_933
*1442 FILLER_2_940
*1443 FILLER_2_947
*1444 FILLER_2_954
*1445 FILLER_2_961
*1446 FILLER_2_968
*1447 FILLER_2_975
*1448 FILLER_2_982
*1449 FILLER_2_989
*1450 FILLER_2_996
*1451 FILLER_30_59
*1452 FILLER_30_749
*1453 FILLER_30_756
*1454 FILLER_30_763
*1455 FILLER_30_770
*1456 FILLER_30_777
*1457 FILLER_30_784
*1458 FILLER_30_786
*1459 FILLER_30_814
*1460 FILLER_30_816
*1461 FILLER_30_837
*1462 FILLER_30_844
*1463 FILLER_30_851
*1464 FILLER_31_0
*1465 FILLER_31_749
*1466 FILLER_31_756
*1467 FILLER_31_763
*1468 FILLER_31_770
*1469 FILLER_31_777
*1470 FILLER_31_784
*1471 FILLER_31_791
*1472 FILLER_31_798
*1473 FILLER_31_805
*1474 FILLER_31_809
*1475 FILLER_31_821
*1476 FILLER_31_823
*1477 FILLER_31_851
*1478 FILLER_32_749
*1479 FILLER_32_756
*1480 FILLER_32_763
*1481 FILLER_32_770
*1482 FILLER_32_777
*1483 FILLER_32_784
*1484 FILLER_32_786
*1485 FILLER_32_851
*1486 FILLER_33_749
*1487 FILLER_33_756
*1488 FILLER_33_763
*1489 FILLER_33_770
*1490 FILLER_33_777
*1491 FILLER_33_784
*1492 FILLER_33_791
*1493 FILLER_33_795
*1494 FILLER_33_800
*1495 FILLER_33_806
*1496 FILLER_33_813
*1497 FILLER_33_830
*1498 FILLER_33_837
*1499 FILLER_33_844
*1500 FILLER_33_851
*1501 FILLER_34_749
*1502 FILLER_34_756
*1503 FILLER_34_763
*1504 FILLER_34_770
*1505 FILLER_34_777
*1506 FILLER_34_784
*1507 FILLER_34_791
*1508 FILLER_34_798
*1509 FILLER_34_805
*1510 FILLER_34_812
*1511 FILLER_34_814
*1512 FILLER_35_749
*1513 FILLER_35_756
*1514 FILLER_35_763
*1515 FILLER_35_770
*1516 FILLER_35_777
*1517 FILLER_35_784
*1518 FILLER_35_791
*1519 FILLER_35_798
*1520 FILLER_35_805
*1521 FILLER_35_812
*1522 FILLER_35_819
*1523 FILLER_35_823
*1524 FILLER_35_851
*1525 FILLER_36_749
*1526 FILLER_36_756
*1527 FILLER_36_763
*1528 FILLER_36_770
*1529 FILLER_36_777
*1530 FILLER_36_784
*1531 FILLER_36_791
*1532 FILLER_36_798
*1533 FILLER_36_805
*1534 FILLER_36_812
*1535 FILLER_36_819
*1536 FILLER_36_826
*1537 FILLER_36_830
*1538 FILLER_36_841
*1539 FILLER_36_848
*1540 FILLER_37_0
*1541 FILLER_37_749
*1542 FILLER_37_756
*1543 FILLER_37_763
*1544 FILLER_37_770
*1545 FILLER_37_777
*1546 FILLER_37_784
*1547 FILLER_37_791
*1548 FILLER_37_798
*1549 FILLER_37_805
*1550 FILLER_37_812
*1551 FILLER_37_819
*1552 FILLER_37_823
*1553 FILLER_38_71
*1554 FILLER_38_749
*1555 FILLER_38_756
*1556 FILLER_38_763
*1557 FILLER_38_770
*1558 FILLER_38_777
*1559 FILLER_38_784
*1560 FILLER_38_791
*1561 FILLER_38_798
*1562 FILLER_38_805
*1563 FILLER_38_812
*1564 FILLER_38_819
*1565 FILLER_38_826
*1566 FILLER_38_833
*1567 FILLER_38_840
*1568 FILLER_38_847
*1569 FILLER_38_851
*1570 FILLER_39_749
*1571 FILLER_39_756
*1572 FILLER_39_763
*1573 FILLER_39_770
*1574 FILLER_39_777
*1575 FILLER_39_784
*1576 FILLER_39_791
*1577 FILLER_39_798
*1578 FILLER_39_805
*1579 FILLER_39_812
*1580 FILLER_39_819
*1581 FILLER_39_826
*1582 FILLER_39_833
*1583 FILLER_39_840
*1584 FILLER_39_847
*1585 FILLER_39_851
*1586 FILLER_3_0
*1587 FILLER_3_1001
*1588 FILLER_3_1008
*1589 FILLER_3_1015
*1590 FILLER_3_1022
*1591 FILLER_3_125
*1592 FILLER_3_14
*1593 FILLER_3_162
*1594 FILLER_3_202
*1595 FILLER_3_255
*1596 FILLER_3_262
*1597 FILLER_3_298
*1598 FILLER_3_305
*1599 FILLER_3_309
*1600 FILLER_3_350
*1601 FILLER_3_357
*1602 FILLER_3_371
*1603 FILLER_3_378
*1604 FILLER_3_385
*1605 FILLER_3_392
*1606 FILLER_3_404
*1607 FILLER_3_415
*1608 FILLER_3_422
*1609 FILLER_3_429
*1610 FILLER_3_436
*1611 FILLER_3_438
*1612 FILLER_3_449
*1613 FILLER_3_451
*1614 FILLER_3_462
*1615 FILLER_3_466
*1616 FILLER_3_477
*1617 FILLER_3_481
*1618 FILLER_3_492
*1619 FILLER_3_499
*1620 FILLER_3_501
*1621 FILLER_3_539
*1622 FILLER_3_546
*1623 FILLER_3_553
*1624 FILLER_3_560
*1625 FILLER_3_567
*1626 FILLER_3_574
*1627 FILLER_3_581
*1628 FILLER_3_588
*1629 FILLER_3_595
*1630 FILLER_3_602
*1631 FILLER_3_609
*1632 FILLER_3_616
*1633 FILLER_3_623
*1634 FILLER_3_630
*1635 FILLER_3_637
*1636 FILLER_3_644
*1637 FILLER_3_651
*1638 FILLER_3_658
*1639 FILLER_3_665
*1640 FILLER_3_672
*1641 FILLER_3_679
*1642 FILLER_3_686
*1643 FILLER_3_693
*1644 FILLER_3_700
*1645 FILLER_3_707
*1646 FILLER_3_714
*1647 FILLER_3_749
*1648 FILLER_3_756
*1649 FILLER_3_763
*1650 FILLER_3_770
*1651 FILLER_3_777
*1652 FILLER_3_784
*1653 FILLER_3_791
*1654 FILLER_3_798
*1655 FILLER_3_805
*1656 FILLER_3_812
*1657 FILLER_3_819
*1658 FILLER_3_826
*1659 FILLER_3_833
*1660 FILLER_3_840
*1661 FILLER_3_847
*1662 FILLER_3_854
*1663 FILLER_3_861
*1664 FILLER_3_868
*1665 FILLER_3_875
*1666 FILLER_3_882
*1667 FILLER_3_889
*1668 FILLER_3_896
*1669 FILLER_3_903
*1670 FILLER_3_910
*1671 FILLER_3_917
*1672 FILLER_3_924
*1673 FILLER_3_931
*1674 FILLER_3_938
*1675 FILLER_3_945
*1676 FILLER_3_952
*1677 FILLER_3_959
*1678 FILLER_3_966
*1679 FILLER_3_97
*1680 FILLER_3_973
*1681 FILLER_3_980
*1682 FILLER_3_987
*1683 FILLER_3_994
*1684 FILLER_40_27
*1685 FILLER_40_66
*1686 FILLER_40_749
*1687 FILLER_40_756
*1688 FILLER_40_763
*1689 FILLER_40_770
*1690 FILLER_40_777
*1691 FILLER_40_784
*1692 FILLER_40_791
*1693 FILLER_40_798
*1694 FILLER_40_805
*1695 FILLER_40_812
*1696 FILLER_40_819
*1697 FILLER_40_826
*1698 FILLER_40_833
*1699 FILLER_40_840
*1700 FILLER_40_847
*1701 FILLER_40_851
*1702 FILLER_41_173
*1703 FILLER_41_227
*1704 FILLER_41_259
*1705 FILLER_41_266
*1706 FILLER_41_270
*1707 FILLER_41_298
*1708 FILLER_41_340
*1709 FILLER_41_367
*1710 FILLER_41_371
*1711 FILLER_41_41
*1712 FILLER_41_425
*1713 FILLER_41_432
*1714 FILLER_41_444
*1715 FILLER_41_498
*1716 FILLER_41_502
*1717 FILLER_41_556
*1718 FILLER_41_563
*1719 FILLER_41_570
*1720 FILLER_41_577
*1721 FILLER_41_584
*1722 FILLER_41_591
*1723 FILLER_41_598
*1724 FILLER_41_605
*1725 FILLER_41_612
*1726 FILLER_41_619
*1727 FILLER_41_626
*1728 FILLER_41_633
*1729 FILLER_41_640
*1730 FILLER_41_647
*1731 FILLER_41_654
*1732 FILLER_41_661
*1733 FILLER_41_668
*1734 FILLER_41_675
*1735 FILLER_41_682
*1736 FILLER_41_689
*1737 FILLER_41_696
*1738 FILLER_41_70
*1739 FILLER_41_703
*1740 FILLER_41_710
*1741 FILLER_41_717
*1742 FILLER_41_724
*1743 FILLER_41_731
*1744 FILLER_41_738
*1745 FILLER_41_745
*1746 FILLER_41_752
*1747 FILLER_41_759
*1748 FILLER_41_766
*1749 FILLER_41_773
*1750 FILLER_41_780
*1751 FILLER_41_787
*1752 FILLER_41_794
*1753 FILLER_41_801
*1754 FILLER_41_808
*1755 FILLER_41_815
*1756 FILLER_41_822
*1757 FILLER_41_829
*1758 FILLER_41_836
*1759 FILLER_41_843
*1760 FILLER_41_850
*1761 FILLER_42_215
*1762 FILLER_42_270
*1763 FILLER_42_274
*1764 FILLER_42_302
*1765 FILLER_42_306
*1766 FILLER_42_439
*1767 FILLER_42_44
*1768 FILLER_42_470
*1769 FILLER_42_477
*1770 FILLER_42_484
*1771 FILLER_42_488
*1772 FILLER_42_5
*1773 FILLER_42_516
*1774 FILLER_42_544
*1775 FILLER_42_551
*1776 FILLER_42_558
*1777 FILLER_42_565
*1778 FILLER_42_572
*1779 FILLER_42_579
*1780 FILLER_42_586
*1781 FILLER_42_593
*1782 FILLER_42_600
*1783 FILLER_42_607
*1784 FILLER_42_614
*1785 FILLER_42_621
*1786 FILLER_42_628
*1787 FILLER_42_635
*1788 FILLER_42_642
*1789 FILLER_42_649
*1790 FILLER_42_656
*1791 FILLER_42_663
*1792 FILLER_42_670
*1793 FILLER_42_677
*1794 FILLER_42_684
*1795 FILLER_42_691
*1796 FILLER_42_698
*1797 FILLER_42_705
*1798 FILLER_42_712
*1799 FILLER_42_719
*1800 FILLER_42_726
*1801 FILLER_42_733
*1802 FILLER_42_740
*1803 FILLER_42_747
*1804 FILLER_42_754
*1805 FILLER_42_761
*1806 FILLER_42_768
*1807 FILLER_42_775
*1808 FILLER_42_782
*1809 FILLER_42_789
*1810 FILLER_42_796
*1811 FILLER_42_803
*1812 FILLER_42_810
*1813 FILLER_42_817
*1814 FILLER_42_824
*1815 FILLER_42_831
*1816 FILLER_42_838
*1817 FILLER_42_845
*1818 FILLER_43_0
*1819 FILLER_43_250
*1820 FILLER_43_257
*1821 FILLER_43_264
*1822 FILLER_43_286
*1823 FILLER_43_333
*1824 FILLER_43_340
*1825 FILLER_43_379
*1826 FILLER_43_386
*1827 FILLER_43_393
*1828 FILLER_43_400
*1829 FILLER_43_402
*1830 FILLER_43_407
*1831 FILLER_43_414
*1832 FILLER_43_421
*1833 FILLER_43_428
*1834 FILLER_43_435
*1835 FILLER_43_442
*1836 FILLER_43_449
*1837 FILLER_43_456
*1838 FILLER_43_460
*1839 FILLER_43_471
*1840 FILLER_43_478
*1841 FILLER_43_485
*1842 FILLER_43_489
*1843 FILLER_43_539
*1844 FILLER_43_546
*1845 FILLER_43_553
*1846 FILLER_43_560
*1847 FILLER_43_567
*1848 FILLER_43_574
*1849 FILLER_43_581
*1850 FILLER_43_588
*1851 FILLER_43_595
*1852 FILLER_43_602
*1853 FILLER_43_609
*1854 FILLER_43_616
*1855 FILLER_43_623
*1856 FILLER_43_630
*1857 FILLER_43_637
*1858 FILLER_43_644
*1859 FILLER_43_651
*1860 FILLER_43_658
*1861 FILLER_43_665
*1862 FILLER_43_672
*1863 FILLER_43_679
*1864 FILLER_43_686
*1865 FILLER_43_693
*1866 FILLER_43_700
*1867 FILLER_43_707
*1868 FILLER_43_714
*1869 FILLER_43_72
*1870 FILLER_43_721
*1871 FILLER_43_728
*1872 FILLER_43_735
*1873 FILLER_43_742
*1874 FILLER_43_749
*1875 FILLER_43_756
*1876 FILLER_43_763
*1877 FILLER_43_770
*1878 FILLER_43_777
*1879 FILLER_43_784
*1880 FILLER_43_791
*1881 FILLER_43_798
*1882 FILLER_43_805
*1883 FILLER_43_812
*1884 FILLER_43_819
*1885 FILLER_43_826
*1886 FILLER_43_833
*1887 FILLER_43_840
*1888 FILLER_43_847
*1889 FILLER_43_851
*1890 FILLER_44_240
*1891 FILLER_44_247
*1892 FILLER_44_254
*1893 FILLER_44_261
*1894 FILLER_44_268
*1895 FILLER_44_270
*1896 FILLER_44_284
*1897 FILLER_44_291
*1898 FILLER_44_298
*1899 FILLER_44_302
*1900 FILLER_44_328
*1901 FILLER_44_332
*1902 FILLER_44_369
*1903 FILLER_44_376
*1904 FILLER_44_383
*1905 FILLER_44_390
*1906 FILLER_44_397
*1907 FILLER_44_404
*1908 FILLER_44_411
*1909 FILLER_44_418
*1910 FILLER_44_425
*1911 FILLER_44_432
*1912 FILLER_44_439
*1913 FILLER_44_446
*1914 FILLER_44_453
*1915 FILLER_44_460
*1916 FILLER_44_467
*1917 FILLER_44_474
*1918 FILLER_44_481
*1919 FILLER_44_488
*1920 FILLER_44_495
*1921 FILLER_44_499
*1922 FILLER_44_535
*1923 FILLER_44_542
*1924 FILLER_44_549
*1925 FILLER_44_556
*1926 FILLER_44_563
*1927 FILLER_44_570
*1928 FILLER_44_577
*1929 FILLER_44_584
*1930 FILLER_44_591
*1931 FILLER_44_598
*1932 FILLER_44_605
*1933 FILLER_44_612
*1934 FILLER_44_619
*1935 FILLER_44_626
*1936 FILLER_44_633
*1937 FILLER_44_640
*1938 FILLER_44_647
*1939 FILLER_44_654
*1940 FILLER_44_661
*1941 FILLER_44_668
*1942 FILLER_44_675
*1943 FILLER_44_682
*1944 FILLER_44_689
*1945 FILLER_44_696
*1946 FILLER_44_703
*1947 FILLER_44_710
*1948 FILLER_44_717
*1949 FILLER_44_724
*1950 FILLER_44_731
*1951 FILLER_44_738
*1952 FILLER_44_745
*1953 FILLER_44_752
*1954 FILLER_44_759
*1955 FILLER_44_766
*1956 FILLER_44_773
*1957 FILLER_44_780
*1958 FILLER_44_787
*1959 FILLER_44_794
*1960 FILLER_44_801
*1961 FILLER_44_808
*1962 FILLER_44_815
*1963 FILLER_44_822
*1964 FILLER_44_829
*1965 FILLER_44_836
*1966 FILLER_44_843
*1967 FILLER_44_850
*1968 FILLER_45_236
*1969 FILLER_45_243
*1970 FILLER_45_250
*1971 FILLER_45_257
*1972 FILLER_45_264
*1973 FILLER_45_27
*1974 FILLER_45_271
*1975 FILLER_45_278
*1976 FILLER_45_285
*1977 FILLER_45_292
*1978 FILLER_45_299
*1979 FILLER_45_306
*1980 FILLER_45_338
*1981 FILLER_45_345
*1982 FILLER_45_352
*1983 FILLER_45_359
*1984 FILLER_45_366
*1985 FILLER_45_373
*1986 FILLER_45_380
*1987 FILLER_45_387
*1988 FILLER_45_394
*1989 FILLER_45_401
*1990 FILLER_45_408
*1991 FILLER_45_415
*1992 FILLER_45_422
*1993 FILLER_45_429
*1994 FILLER_45_436
*1995 FILLER_45_443
*1996 FILLER_45_450
*1997 FILLER_45_457
*1998 FILLER_45_464
*1999 FILLER_45_471
*2000 FILLER_45_478
*2001 FILLER_45_485
*2002 FILLER_45_492
*2003 FILLER_45_499
*2004 FILLER_45_506
*2005 FILLER_45_508
*2006 FILLER_45_513
*2007 FILLER_45_520
*2008 FILLER_45_527
*2009 FILLER_45_534
*2010 FILLER_45_541
*2011 FILLER_45_548
*2012 FILLER_45_555
*2013 FILLER_45_562
*2014 FILLER_45_569
*2015 FILLER_45_576
*2016 FILLER_45_583
*2017 FILLER_45_590
*2018 FILLER_45_597
*2019 FILLER_45_604
*2020 FILLER_45_611
*2021 FILLER_45_618
*2022 FILLER_45_625
*2023 FILLER_45_632
*2024 FILLER_45_639
*2025 FILLER_45_646
*2026 FILLER_45_653
*2027 FILLER_45_660
*2028 FILLER_45_667
*2029 FILLER_45_674
*2030 FILLER_45_681
*2031 FILLER_45_688
*2032 FILLER_45_695
*2033 FILLER_45_702
*2034 FILLER_45_709
*2035 FILLER_45_716
*2036 FILLER_45_723
*2037 FILLER_45_730
*2038 FILLER_45_737
*2039 FILLER_45_744
*2040 FILLER_45_751
*2041 FILLER_45_758
*2042 FILLER_45_765
*2043 FILLER_45_772
*2044 FILLER_45_779
*2045 FILLER_45_786
*2046 FILLER_45_793
*2047 FILLER_45_800
*2048 FILLER_45_807
*2049 FILLER_45_814
*2050 FILLER_45_821
*2051 FILLER_45_828
*2052 FILLER_45_835
*2053 FILLER_45_842
*2054 FILLER_45_849
*2055 FILLER_45_851
*2056 FILLER_46_0
*2057 FILLER_46_17
*2058 FILLER_46_222
*2059 FILLER_46_230
*2060 FILLER_46_237
*2061 FILLER_46_244
*2062 FILLER_46_248
*2063 FILLER_46_266
*2064 FILLER_46_273
*2065 FILLER_46_280
*2066 FILLER_46_287
*2067 FILLER_46_294
*2068 FILLER_46_301
*2069 FILLER_46_328
*2070 FILLER_46_339
*2071 FILLER_46_346
*2072 FILLER_46_353
*2073 FILLER_46_360
*2074 FILLER_46_367
*2075 FILLER_46_374
*2076 FILLER_46_381
*2077 FILLER_46_388
*2078 FILLER_46_395
*2079 FILLER_46_402
*2080 FILLER_46_409
*2081 FILLER_46_416
*2082 FILLER_46_423
*2083 FILLER_46_430
*2084 FILLER_46_437
*2085 FILLER_46_444
*2086 FILLER_46_451
*2087 FILLER_46_458
*2088 FILLER_46_465
*2089 FILLER_46_472
*2090 FILLER_46_479
*2091 FILLER_46_486
*2092 FILLER_46_493
*2093 FILLER_46_500
*2094 FILLER_46_507
*2095 FILLER_46_514
*2096 FILLER_46_521
*2097 FILLER_46_528
*2098 FILLER_46_535
*2099 FILLER_46_542
*2100 FILLER_46_549
*2101 FILLER_46_556
*2102 FILLER_46_563
*2103 FILLER_46_570
*2104 FILLER_46_577
*2105 FILLER_46_584
*2106 FILLER_46_591
*2107 FILLER_46_598
*2108 FILLER_46_627
*2109 FILLER_46_634
*2110 FILLER_46_641
*2111 FILLER_46_648
*2112 FILLER_46_655
*2113 FILLER_46_662
*2114 FILLER_46_669
*2115 FILLER_46_676
*2116 FILLER_46_683
*2117 FILLER_46_690
*2118 FILLER_46_697
*2119 FILLER_46_70
*2120 FILLER_46_704
*2121 FILLER_46_711
*2122 FILLER_46_718
*2123 FILLER_46_725
*2124 FILLER_46_732
*2125 FILLER_46_739
*2126 FILLER_46_746
*2127 FILLER_46_753
*2128 FILLER_46_760
*2129 FILLER_46_767
*2130 FILLER_46_774
*2131 FILLER_46_781
*2132 FILLER_46_788
*2133 FILLER_46_795
*2134 FILLER_46_802
*2135 FILLER_46_809
*2136 FILLER_46_816
*2137 FILLER_46_823
*2138 FILLER_46_830
*2139 FILLER_46_837
*2140 FILLER_46_844
*2141 FILLER_46_851
*2142 FILLER_47_1012
*2143 FILLER_47_1019
*2144 FILLER_47_1026
*2145 FILLER_47_1028
*2146 FILLER_47_228
*2147 FILLER_47_235
*2148 FILLER_47_242
*2149 FILLER_47_249
*2150 FILLER_47_256
*2151 FILLER_47_263
*2152 FILLER_47_270
*2153 FILLER_47_277
*2154 FILLER_47_284
*2155 FILLER_47_291
*2156 FILLER_47_298
*2157 FILLER_47_305
*2158 FILLER_47_312
*2159 FILLER_47_338
*2160 FILLER_47_345
*2161 FILLER_47_352
*2162 FILLER_47_359
*2163 FILLER_47_366
*2164 FILLER_47_373
*2165 FILLER_47_380
*2166 FILLER_47_387
*2167 FILLER_47_394
*2168 FILLER_47_401
*2169 FILLER_47_408
*2170 FILLER_47_415
*2171 FILLER_47_422
*2172 FILLER_47_429
*2173 FILLER_47_436
*2174 FILLER_47_443
*2175 FILLER_47_450
*2176 FILLER_47_457
*2177 FILLER_47_464
*2178 FILLER_47_471
*2179 FILLER_47_478
*2180 FILLER_47_485
*2181 FILLER_47_492
*2182 FILLER_47_499
*2183 FILLER_47_506
*2184 FILLER_47_513
*2185 FILLER_47_520
*2186 FILLER_47_527
*2187 FILLER_47_534
*2188 FILLER_47_541
*2189 FILLER_47_548
*2190 FILLER_47_555
*2191 FILLER_47_562
*2192 FILLER_47_569
*2193 FILLER_47_576
*2194 FILLER_47_583
*2195 FILLER_47_590
*2196 FILLER_47_597
*2197 FILLER_47_604
*2198 FILLER_47_611
*2199 FILLER_47_618
*2200 FILLER_47_625
*2201 FILLER_47_632
*2202 FILLER_47_639
*2203 FILLER_47_646
*2204 FILLER_47_653
*2205 FILLER_47_660
*2206 FILLER_47_667
*2207 FILLER_47_674
*2208 FILLER_47_681
*2209 FILLER_47_688
*2210 FILLER_47_695
*2211 FILLER_47_702
*2212 FILLER_47_709
*2213 FILLER_47_716
*2214 FILLER_47_723
*2215 FILLER_47_730
*2216 FILLER_47_737
*2217 FILLER_47_744
*2218 FILLER_47_751
*2219 FILLER_47_758
*2220 FILLER_47_765
*2221 FILLER_47_772
*2222 FILLER_47_779
*2223 FILLER_47_786
*2224 FILLER_47_793
*2225 FILLER_47_800
*2226 FILLER_47_807
*2227 FILLER_47_814
*2228 FILLER_47_821
*2229 FILLER_47_828
*2230 FILLER_47_835
*2231 FILLER_47_842
*2232 FILLER_47_849
*2233 FILLER_47_891
*2234 FILLER_47_898
*2235 FILLER_47_905
*2236 FILLER_47_912
*2237 FILLER_47_950
*2238 FILLER_47_961
*2239 FILLER_47_963
*2240 FILLER_47_984
*2241 FILLER_48_1015
*2242 FILLER_48_1022
*2243 FILLER_48_231
*2244 FILLER_48_238
*2245 FILLER_48_245
*2246 FILLER_48_278
*2247 FILLER_48_285
*2248 FILLER_48_292
*2249 FILLER_48_299
*2250 FILLER_48_306
*2251 FILLER_48_313
*2252 FILLER_48_320
*2253 FILLER_48_322
*2254 FILLER_48_348
*2255 FILLER_48_355
*2256 FILLER_48_362
*2257 FILLER_48_369
*2258 FILLER_48_376
*2259 FILLER_48_383
*2260 FILLER_48_390
*2261 FILLER_48_397
*2262 FILLER_48_404
*2263 FILLER_48_411
*2264 FILLER_48_418
*2265 FILLER_48_425
*2266 FILLER_48_432
*2267 FILLER_48_439
*2268 FILLER_48_446
*2269 FILLER_48_453
*2270 FILLER_48_460
*2271 FILLER_48_467
*2272 FILLER_48_474
*2273 FILLER_48_481
*2274 FILLER_48_488
*2275 FILLER_48_495
*2276 FILLER_48_502
*2277 FILLER_48_509
*2278 FILLER_48_516
*2279 FILLER_48_523
*2280 FILLER_48_530
*2281 FILLER_48_537
*2282 FILLER_48_544
*2283 FILLER_48_551
*2284 FILLER_48_558
*2285 FILLER_48_565
*2286 FILLER_48_572
*2287 FILLER_48_579
*2288 FILLER_48_586
*2289 FILLER_48_593
*2290 FILLER_48_600
*2291 FILLER_48_607
*2292 FILLER_48_614
*2293 FILLER_48_621
*2294 FILLER_48_628
*2295 FILLER_48_635
*2296 FILLER_48_642
*2297 FILLER_48_649
*2298 FILLER_48_656
*2299 FILLER_48_663
*2300 FILLER_48_670
*2301 FILLER_48_677
*2302 FILLER_48_684
*2303 FILLER_48_691
*2304 FILLER_48_698
*2305 FILLER_48_705
*2306 FILLER_48_712
*2307 FILLER_48_719
*2308 FILLER_48_726
*2309 FILLER_48_733
*2310 FILLER_48_740
*2311 FILLER_48_747
*2312 FILLER_48_754
*2313 FILLER_48_761
*2314 FILLER_48_768
*2315 FILLER_48_775
*2316 FILLER_48_782
*2317 FILLER_48_789
*2318 FILLER_48_796
*2319 FILLER_48_803
*2320 FILLER_48_810
*2321 FILLER_48_817
*2322 FILLER_48_824
*2323 FILLER_48_831
*2324 FILLER_48_838
*2325 FILLER_48_845
*2326 FILLER_48_852
*2327 FILLER_48_859
*2328 FILLER_48_866
*2329 FILLER_48_868
*2330 FILLER_48_873
*2331 FILLER_48_880
*2332 FILLER_48_887
*2333 FILLER_48_894
*2334 FILLER_48_901
*2335 FILLER_48_908
*2336 FILLER_48_912
*2337 FILLER_48_950
*2338 FILLER_48_957
*2339 FILLER_48_985
*2340 FILLER_48_987
*2341 FILLER_49_1017
*2342 FILLER_49_1024
*2343 FILLER_49_1028
*2344 FILLER_49_226
*2345 FILLER_49_233
*2346 FILLER_49_240
*2347 FILLER_49_247
*2348 FILLER_49_254
*2349 FILLER_49_261
*2350 FILLER_49_268
*2351 FILLER_49_275
*2352 FILLER_49_282
*2353 FILLER_49_289
*2354 FILLER_49_296
*2355 FILLER_49_303
*2356 FILLER_49_310
*2357 FILLER_49_317
*2358 FILLER_49_324
*2359 FILLER_49_331
*2360 FILLER_49_338
*2361 FILLER_49_345
*2362 FILLER_49_352
*2363 FILLER_49_359
*2364 FILLER_49_366
*2365 FILLER_49_373
*2366 FILLER_49_380
*2367 FILLER_49_387
*2368 FILLER_49_394
*2369 FILLER_49_401
*2370 FILLER_49_408
*2371 FILLER_49_415
*2372 FILLER_49_422
*2373 FILLER_49_429
*2374 FILLER_49_436
*2375 FILLER_49_443
*2376 FILLER_49_450
*2377 FILLER_49_457
*2378 FILLER_49_464
*2379 FILLER_49_471
*2380 FILLER_49_478
*2381 FILLER_49_485
*2382 FILLER_49_492
*2383 FILLER_49_499
*2384 FILLER_49_5
*2385 FILLER_49_506
*2386 FILLER_49_513
*2387 FILLER_49_520
*2388 FILLER_49_527
*2389 FILLER_49_534
*2390 FILLER_49_541
*2391 FILLER_49_548
*2392 FILLER_49_555
*2393 FILLER_49_562
*2394 FILLER_49_569
*2395 FILLER_49_576
*2396 FILLER_49_583
*2397 FILLER_49_590
*2398 FILLER_49_597
*2399 FILLER_49_604
*2400 FILLER_49_611
*2401 FILLER_49_618
*2402 FILLER_49_625
*2403 FILLER_49_632
*2404 FILLER_49_639
*2405 FILLER_49_646
*2406 FILLER_49_653
*2407 FILLER_49_66
*2408 FILLER_49_660
*2409 FILLER_49_667
*2410 FILLER_49_674
*2411 FILLER_49_681
*2412 FILLER_49_688
*2413 FILLER_49_695
*2414 FILLER_49_702
*2415 FILLER_49_709
*2416 FILLER_49_716
*2417 FILLER_49_723
*2418 FILLER_49_730
*2419 FILLER_49_737
*2420 FILLER_49_744
*2421 FILLER_49_751
*2422 FILLER_49_758
*2423 FILLER_49_765
*2424 FILLER_49_772
*2425 FILLER_49_779
*2426 FILLER_49_786
*2427 FILLER_49_793
*2428 FILLER_49_800
*2429 FILLER_49_807
*2430 FILLER_49_814
*2431 FILLER_49_821
*2432 FILLER_49_828
*2433 FILLER_49_835
*2434 FILLER_49_842
*2435 FILLER_49_849
*2436 FILLER_49_856
*2437 FILLER_49_863
*2438 FILLER_49_870
*2439 FILLER_49_877
*2440 FILLER_49_884
*2441 FILLER_49_891
*2442 FILLER_49_898
*2443 FILLER_49_905
*2444 FILLER_49_912
*2445 FILLER_49_919
*2446 FILLER_49_926
*2447 FILLER_49_933
*2448 FILLER_49_940
*2449 FILLER_49_947
*2450 FILLER_49_949
*2451 FILLER_49_987
*2452 FILLER_49_991
*2453 FILLER_4_0
*2454 FILLER_4_1002
*2455 FILLER_4_1009
*2456 FILLER_4_1016
*2457 FILLER_4_1023
*2458 FILLER_4_1027
*2459 FILLER_4_115
*2460 FILLER_4_122
*2461 FILLER_4_164
*2462 FILLER_4_202
*2463 FILLER_4_204
*2464 FILLER_4_267
*2465 FILLER_4_277
*2466 FILLER_4_279
*2467 FILLER_4_307
*2468 FILLER_4_314
*2469 FILLER_4_341
*2470 FILLER_4_348
*2471 FILLER_4_352
*2472 FILLER_4_391
*2473 FILLER_4_447
*2474 FILLER_4_478
*2475 FILLER_4_5
*2476 FILLER_4_512
*2477 FILLER_4_519
*2478 FILLER_4_526
*2479 FILLER_4_533
*2480 FILLER_4_540
*2481 FILLER_4_547
*2482 FILLER_4_554
*2483 FILLER_4_561
*2484 FILLER_4_568
*2485 FILLER_4_575
*2486 FILLER_4_582
*2487 FILLER_4_589
*2488 FILLER_4_596
*2489 FILLER_4_603
*2490 FILLER_4_610
*2491 FILLER_4_617
*2492 FILLER_4_624
*2493 FILLER_4_631
*2494 FILLER_4_638
*2495 FILLER_4_645
*2496 FILLER_4_652
*2497 FILLER_4_659
*2498 FILLER_4_666
*2499 FILLER_4_673
*2500 FILLER_4_680
*2501 FILLER_4_687
*2502 FILLER_4_694
*2503 FILLER_4_701
*2504 FILLER_4_708
*2505 FILLER_4_715
*2506 FILLER_4_722
*2507 FILLER_4_729
*2508 FILLER_4_736
*2509 FILLER_4_743
*2510 FILLER_4_750
*2511 FILLER_4_757
*2512 FILLER_4_764
*2513 FILLER_4_771
*2514 FILLER_4_778
*2515 FILLER_4_785
*2516 FILLER_4_792
*2517 FILLER_4_799
*2518 FILLER_4_806
*2519 FILLER_4_813
*2520 FILLER_4_820
*2521 FILLER_4_827
*2522 FILLER_4_834
*2523 FILLER_4_841
*2524 FILLER_4_848
*2525 FILLER_4_855
*2526 FILLER_4_862
*2527 FILLER_4_869
*2528 FILLER_4_876
*2529 FILLER_4_883
*2530 FILLER_4_890
*2531 FILLER_4_897
*2532 FILLER_4_904
*2533 FILLER_4_911
*2534 FILLER_4_918
*2535 FILLER_4_925
*2536 FILLER_4_932
*2537 FILLER_4_939
*2538 FILLER_4_946
*2539 FILLER_4_95
*2540 FILLER_4_953
*2541 FILLER_4_960
*2542 FILLER_4_967
*2543 FILLER_4_974
*2544 FILLER_4_981
*2545 FILLER_4_988
*2546 FILLER_4_995
*2547 FILLER_5_1003
*2548 FILLER_5_1010
*2549 FILLER_5_1017
*2550 FILLER_5_1024
*2551 FILLER_5_1028
*2552 FILLER_5_126
*2553 FILLER_5_137
*2554 FILLER_5_141
*2555 FILLER_5_169
*2556 FILLER_5_176
*2557 FILLER_5_180
*2558 FILLER_5_217
*2559 FILLER_5_276
*2560 FILLER_5_288
*2561 FILLER_5_292
*2562 FILLER_5_31
*2563 FILLER_5_314
*2564 FILLER_5_321
*2565 FILLER_5_328
*2566 FILLER_5_335
*2567 FILLER_5_342
*2568 FILLER_5_349
*2569 FILLER_5_403
*2570 FILLER_5_407
*2571 FILLER_5_42
*2572 FILLER_5_429
*2573 FILLER_5_436
*2574 FILLER_5_44
*2575 FILLER_5_443
*2576 FILLER_5_447
*2577 FILLER_5_476
*2578 FILLER_5_483
*2579 FILLER_5_485
*2580 FILLER_5_496
*2581 FILLER_5_503
*2582 FILLER_5_505
*2583 FILLER_5_543
*2584 FILLER_5_550
*2585 FILLER_5_557
*2586 FILLER_5_564
*2587 FILLER_5_571
*2588 FILLER_5_578
*2589 FILLER_5_585
*2590 FILLER_5_59
*2591 FILLER_5_592
*2592 FILLER_5_599
*2593 FILLER_5_606
*2594 FILLER_5_61
*2595 FILLER_5_613
*2596 FILLER_5_620
*2597 FILLER_5_627
*2598 FILLER_5_634
*2599 FILLER_5_641
*2600 FILLER_5_648
*2601 FILLER_5_655
*2602 FILLER_5_662
*2603 FILLER_5_669
*2604 FILLER_5_676
*2605 FILLER_5_683
*2606 FILLER_5_690
*2607 FILLER_5_697
*2608 FILLER_5_704
*2609 FILLER_5_730
*2610 FILLER_5_737
*2611 FILLER_5_744
*2612 FILLER_5_751
*2613 FILLER_5_758
*2614 FILLER_5_765
*2615 FILLER_5_772
*2616 FILLER_5_779
*2617 FILLER_5_786
*2618 FILLER_5_793
*2619 FILLER_5_800
*2620 FILLER_5_807
*2621 FILLER_5_814
*2622 FILLER_5_821
*2623 FILLER_5_828
*2624 FILLER_5_835
*2625 FILLER_5_842
*2626 FILLER_5_849
*2627 FILLER_5_856
*2628 FILLER_5_863
*2629 FILLER_5_870
*2630 FILLER_5_877
*2631 FILLER_5_884
*2632 FILLER_5_891
*2633 FILLER_5_898
*2634 FILLER_5_905
*2635 FILLER_5_912
*2636 FILLER_5_919
*2637 FILLER_5_926
*2638 FILLER_5_933
*2639 FILLER_5_940
*2640 FILLER_5_947
*2641 FILLER_5_954
*2642 FILLER_5_961
*2643 FILLER_5_968
*2644 FILLER_5_975
*2645 FILLER_5_982
*2646 FILLER_5_989
*2647 FILLER_5_996
*2648 FILLER_6_1001
*2649 FILLER_6_1008
*2650 FILLER_6_1015
*2651 FILLER_6_1022
*2652 FILLER_6_113
*2653 FILLER_6_120
*2654 FILLER_6_127
*2655 FILLER_6_134
*2656 FILLER_6_141
*2657 FILLER_6_148
*2658 FILLER_6_153
*2659 FILLER_6_161
*2660 FILLER_6_168
*2661 FILLER_6_175
*2662 FILLER_6_182
*2663 FILLER_6_189
*2664 FILLER_6_196
*2665 FILLER_6_210
*2666 FILLER_6_217
*2667 FILLER_6_221
*2668 FILLER_6_232
*2669 FILLER_6_234
*2670 FILLER_6_339
*2671 FILLER_6_458
*2672 FILLER_6_465
*2673 FILLER_6_467
*2674 FILLER_6_522
*2675 FILLER_6_577
*2676 FILLER_6_584
*2677 FILLER_6_591
*2678 FILLER_6_598
*2679 FILLER_6_605
*2680 FILLER_6_612
*2681 FILLER_6_619
*2682 FILLER_6_626
*2683 FILLER_6_633
*2684 FILLER_6_640
*2685 FILLER_6_647
*2686 FILLER_6_654
*2687 FILLER_6_661
*2688 FILLER_6_668
*2689 FILLER_6_675
*2690 FILLER_6_68
*2691 FILLER_6_682
*2692 FILLER_6_689
*2693 FILLER_6_691
*2694 FILLER_6_720
*2695 FILLER_6_749
*2696 FILLER_6_756
*2697 FILLER_6_763
*2698 FILLER_6_770
*2699 FILLER_6_777
*2700 FILLER_6_784
*2701 FILLER_6_791
*2702 FILLER_6_798
*2703 FILLER_6_805
*2704 FILLER_6_812
*2705 FILLER_6_819
*2706 FILLER_6_826
*2707 FILLER_6_833
*2708 FILLER_6_840
*2709 FILLER_6_847
*2710 FILLER_6_854
*2711 FILLER_6_861
*2712 FILLER_6_868
*2713 FILLER_6_875
*2714 FILLER_6_882
*2715 FILLER_6_889
*2716 FILLER_6_896
*2717 FILLER_6_9
*2718 FILLER_6_903
*2719 FILLER_6_910
*2720 FILLER_6_917
*2721 FILLER_6_924
*2722 FILLER_6_931
*2723 FILLER_6_938
*2724 FILLER_6_945
*2725 FILLER_6_952
*2726 FILLER_6_959
*2727 FILLER_6_966
*2728 FILLER_6_973
*2729 FILLER_6_98
*2730 FILLER_6_980
*2731 FILLER_6_987
*2732 FILLER_6_994
*2733 FILLER_7_0
*2734 FILLER_7_1001
*2735 FILLER_7_1027
*2736 FILLER_7_130
*2737 FILLER_7_137
*2738 FILLER_7_141
*2739 FILLER_7_179
*2740 FILLER_7_186
*2741 FILLER_7_197
*2742 FILLER_7_2
*2743 FILLER_7_226
*2744 FILLER_7_233
*2745 FILLER_7_244
*2746 FILLER_7_264
*2747 FILLER_7_293
*2748 FILLER_7_300
*2749 FILLER_7_307
*2750 FILLER_7_314
*2751 FILLER_7_321
*2752 FILLER_7_328
*2753 FILLER_7_335
*2754 FILLER_7_342
*2755 FILLER_7_346
*2756 FILLER_7_357
*2757 FILLER_7_364
*2758 FILLER_7_381
*2759 FILLER_7_383
*2760 FILLER_7_388
*2761 FILLER_7_399
*2762 FILLER_7_406
*2763 FILLER_7_413
*2764 FILLER_7_420
*2765 FILLER_7_427
*2766 FILLER_7_434
*2767 FILLER_7_436
*2768 FILLER_7_451
*2769 FILLER_7_458
*2770 FILLER_7_465
*2771 FILLER_7_476
*2772 FILLER_7_483
*2773 FILLER_7_490
*2774 FILLER_7_497
*2775 FILLER_7_504
*2776 FILLER_7_511
*2777 FILLER_7_522
*2778 FILLER_7_529
*2779 FILLER_7_536
*2780 FILLER_7_547
*2781 FILLER_7_554
*2782 FILLER_7_561
*2783 FILLER_7_568
*2784 FILLER_7_575
*2785 FILLER_7_582
*2786 FILLER_7_589
*2787 FILLER_7_596
*2788 FILLER_7_603
*2789 FILLER_7_610
*2790 FILLER_7_617
*2791 FILLER_7_624
*2792 FILLER_7_631
*2793 FILLER_7_638
*2794 FILLER_7_645
*2795 FILLER_7_652
*2796 FILLER_7_659
*2797 FILLER_7_666
*2798 FILLER_7_673
*2799 FILLER_7_680
*2800 FILLER_7_684
*2801 FILLER_7_710
*2802 FILLER_7_752
*2803 FILLER_7_759
*2804 FILLER_7_766
*2805 FILLER_7_773
*2806 FILLER_7_780
*2807 FILLER_7_787
*2808 FILLER_7_794
*2809 FILLER_7_801
*2810 FILLER_7_808
*2811 FILLER_7_815
*2812 FILLER_7_822
*2813 FILLER_7_829
*2814 FILLER_7_836
*2815 FILLER_7_843
*2816 FILLER_7_850
*2817 FILLER_7_857
*2818 FILLER_7_864
*2819 FILLER_7_87
*2820 FILLER_7_871
*2821 FILLER_7_878
*2822 FILLER_7_885
*2823 FILLER_7_892
*2824 FILLER_7_899
*2825 FILLER_7_906
*2826 FILLER_7_913
*2827 FILLER_7_920
*2828 FILLER_7_927
*2829 FILLER_7_934
*2830 FILLER_7_941
*2831 FILLER_7_948
*2832 FILLER_7_955
*2833 FILLER_7_962
*2834 FILLER_7_969
*2835 FILLER_7_976
*2836 FILLER_7_983
*2837 FILLER_7_99
*2838 FILLER_7_990
*2839 FILLER_7_997
*2840 FILLER_8_1000
*2841 FILLER_8_1007
*2842 FILLER_8_1014
*2843 FILLER_8_1021
*2844 FILLER_8_1028
*2845 FILLER_8_37
*2846 FILLER_8_64
*2847 FILLER_8_70
*2848 FILLER_8_72
*2849 FILLER_8_762
*2850 FILLER_8_769
*2851 FILLER_8_776
*2852 FILLER_8_783
*2853 FILLER_8_790
*2854 FILLER_8_797
*2855 FILLER_8_804
*2856 FILLER_8_811
*2857 FILLER_8_818
*2858 FILLER_8_825
*2859 FILLER_8_832
*2860 FILLER_8_839
*2861 FILLER_8_846
*2862 FILLER_8_853
*2863 FILLER_8_860
*2864 FILLER_8_867
*2865 FILLER_8_874
*2866 FILLER_8_881
*2867 FILLER_8_888
*2868 FILLER_8_895
*2869 FILLER_8_902
*2870 FILLER_8_909
*2871 FILLER_8_916
*2872 FILLER_8_923
*2873 FILLER_8_930
*2874 FILLER_8_937
*2875 FILLER_8_944
*2876 FILLER_8_951
*2877 FILLER_8_958
*2878 FILLER_8_965
*2879 FILLER_8_972
*2880 FILLER_8_979
*2881 FILLER_8_986
*2882 FILLER_8_993
*2883 FILLER_9_0
*2884 FILLER_9_1001
*2885 FILLER_9_1003
*2886 FILLER_9_47
*2887 FILLER_9_63
*2888 FILLER_9_7
*2889 FILLER_9_749
*2890 FILLER_9_756
*2891 FILLER_9_763
*2892 FILLER_9_770
*2893 FILLER_9_777
*2894 FILLER_9_784
*2895 FILLER_9_791
*2896 FILLER_9_798
*2897 FILLER_9_805
*2898 FILLER_9_812
*2899 FILLER_9_819
*2900 FILLER_9_826
*2901 FILLER_9_833
*2902 FILLER_9_840
*2903 FILLER_9_847
*2904 FILLER_9_854
*2905 FILLER_9_861
*2906 FILLER_9_868
*2907 FILLER_9_875
*2908 FILLER_9_882
*2909 FILLER_9_889
*2910 FILLER_9_896
*2911 FILLER_9_9
*2912 FILLER_9_903
*2913 FILLER_9_910
*2914 FILLER_9_917
*2915 FILLER_9_924
*2916 FILLER_9_931
*2917 FILLER_9_938
*2918 FILLER_9_945
*2919 FILLER_9_952
*2920 FILLER_9_959
*2921 FILLER_9_966
*2922 FILLER_9_973
*2923 FILLER_9_980
*2924 FILLER_9_987
*2925 FILLER_9_994
*2926 _218_
*2927 _219_
*2928 _220_
*2929 _221_
*2930 _222_
*2931 _223_
*2932 _224_
*2933 _225_
*2934 _226_
*2935 _227_
*2936 _228_
*2937 _229_
*2938 _230_
*2939 _231_
*2940 _232_
*2941 _233_
*2942 _234_
*2943 _235_
*2944 _236_
*2945 _237_
*2946 _238_
*2947 _239_
*2948 _240_
*2949 _241_
*2950 _242_
*2951 _243_
*2952 _244_
*2953 _245_
*2954 _246_
*2955 _247_
*2956 _248_
*2957 _249_
*2958 _250_
*2959 _251_
*2960 _252_
*2961 _253_
*2962 _254_
*2963 _255_
*2964 _256_
*2965 _257__98
*2966 _257__99
*2967 _258_
*2968 _259_
*2969 _260_
*2970 _261_
*2971 _262_
*2972 _263_
*2973 _264_
*2974 _265_
*2975 _266_
*2976 _267_
*2977 _268_
*2978 _269_
*2979 _270_
*2980 _271_
*2981 _272_
*2982 _273_
*2983 _274_
*2984 _275_
*2985 _276_
*2986 _277_
*2987 _278_
*2988 _279_
*2989 _280_
*2990 _281_
*2991 _282_
*2992 _283_
*2993 _284_
*2994 _285_
*2995 _286_
*2996 _287_
*2997 _288_
*2998 _289_
*2999 _290_
*3000 _291_
*3001 _292_
*3002 _293_
*3003 _294_
*3004 _295_
*3005 _296_
*3006 _297_
*3007 _298_
*3008 _299_
*3009 _300_
*3010 _301_
*3011 _302_
*3012 _303_
*3013 _304_
*3014 _305_
*3015 _306_
*3016 _307_
*3017 _308_
*3018 _309_
*3019 _310_
*3020 _311_
*3021 _312_
*3022 _313_
*3023 _314_
*3024 _315_
*3025 _316_
*3026 _317_
*3027 _318_
*3028 _319_
*3029 _320_
*3030 _321_
*3031 _322_
*3032 _323_
*3033 _324_
*3034 _325_
*3035 _326_
*3036 _327_
*3037 _328_
*3038 _329_
*3039 _330_
*3040 _331_
*3041 _332_
*3042 _333_
*3043 _334_
*3044 _335_
*3045 _336_
*3046 _337_
*3047 _338_
*3048 _339_
*3049 _340_
*3050 _341_
*3051 _342_
*3052 _343_
*3053 _344_
*3054 _345_
*3055 _346_
*3056 _347_
*3057 _348_
*3058 _349_
*3059 _350_
*3060 _351_
*3061 _352_
*3062 _353_
*3063 _354_
*3064 _355_
*3065 _356_
*3066 _357_
*3067 _358_
*3068 _359_
*3069 _360_
*3070 _361_
*3071 _362_
*3072 _363_
*3073 _364_
*3074 _365_
*3075 _366_
*3076 _367_
*3077 _368_
*3078 _369_
*3079 _370_
*3080 _371_
*3081 _372_
*3082 _373_
*3083 _374_
*3084 _375_
*3085 _376_
*3086 _377_
*3087 _378_
*3088 _379_
*3089 _380_
*3090 _381_
*3091 _382_
*3092 _383_
*3093 _384_
*3094 _385_
*3095 _386_
*3096 _387_
*3097 _388_
*3098 _389_
*3099 _390_
*3100 _391_
*3101 _392_
*3102 _393_
*3103 _394_
*3104 _395_
*3105 _396_
*3106 _397_
*3107 _398_
*3108 _399_
*3109 _400_
*3110 _401_
*3111 _402_
*3112 _403_
*3113 _404_
*3114 _405_
*3115 _406_
*3116 _407_
*3117 _408_
*3118 _409_
*3119 _410_
*3120 _411_
*3121 _412_
*3122 _413_
*3123 _414_
*3124 _415_
*3125 _416_
*3126 _417_
*3127 _418_
*3128 _419_
*3129 _420_
*3130 _421_
*3131 _422_
*3132 _423_
*3133 _424_
*3134 _425_
*3135 _426_
*3136 _427_
*3137 _428_
*3138 _429_
*3139 _430_
*3140 _431_
*3141 _432_
*3142 _433_
*3143 _434_
*3144 _435_
*3145 _436_
*3146 _437_
*3147 _438_
*3148 _439_
*3149 _440_
*3150 _441_
*3151 _442_
*3152 _443_
*3153 _444_
*3154 _445_
*3155 _446_
*3156 _447_
*3157 _448_
*3158 _449_
*3159 _450_
*3160 _451_
*3161 _452_
*3162 _453_
*3163 _454_
*3164 _455_
*3165 _456_
*3166 _457_
*3167 _458_
*3168 _459_
*3169 _460_
*3170 _461_
*3171 _462_
*3172 _463_
*3173 _464_
*3174 _465_
*3175 _466_
*3176 _467_
*3177 _468_
*3178 _469_
*3179 _470_
*3180 _471_
*3181 _472_
*3182 _473_
*3183 _474_
*3184 _475_
*3185 _476_
*3186 _477_
*3187 _478_
*3188 _479_
*3189 _480_
*3190 _481_
*3191 _482_
*3192 _483_
*3193 _484_
*3194 _485_
*3195 _486_
*3196 _487_
*3197 _488_
*3198 _489_
*3199 _490_
*3200 _491_
*3201 _492_
*3202 _493_
*3203 _494_
*3204 _495_
*3205 _496_
*3206 _497_
*3207 _498_
*3208 _499_
*3209 _500_
*3210 _501_
*3211 _502_
*3212 _503_
*3213 _504_
*3214 _505_
*3215 _506_
*3216 _507_
*3217 _508_
*3218 _509_
*3219 _510_
*3220 _511_
*3221 _512_
*3222 _513_
*3223 _514_
*3224 _515_
*3225 _516_
*3226 _517_
*3227 _518_
*3228 _519_
*3229 _520_
*3230 _521_
*3231 _522_
*3232 _523_
*3233 _524_
*3234 _525_
*3235 _526_
*3236 _527_
*3237 _528_
*3238 _529_
*3239 _530_
*3240 _531_
*3241 _532_
*3242 _533_
*3243 _534_
*3244 _535_
*3245 _536_
*3246 _537_
*3247 _538_
*3248 _539_
*3249 _540_
*3250 _541_
*3251 _542_
*3252 _543_
*3253 _544_
*3254 _545_
*3255 _546_
*3256 _547_
*3257 _548_
*3258 _549_
*3259 _550_
*3260 _551_
*3261 _552_
*3262 _553_
*3263 _554_
*3264 _555_
*3265 _556_
*3266 _557_
*3267 _558_
*3268 _559_
*3269 _560_
*3270 _561_
*3271 _562_
*3272 _563_
*3273 _564_
*3274 _565_
*3275 _566_
*3276 _567_
*3277 _568_
*3278 _569_
*3279 _570_
*3280 _571_
*3281 _572_
*3282 _573_
*3283 _574_
*3284 _575_
*3285 _576_
*3286 _577_
*3287 _578_
*3288 _579_
*3289 _580_
*3290 _581_
*3291 _582_
*3292 _583_
*3293 _584_
*3294 _585_
*3295 _586_
*3296 _587_
*3297 _588_
*3298 _589_
*3299 _590_
*3300 _591_
*3301 _592_
*3302 _593_
*3303 _594_
*3304 _595_
*3305 _596_
*3306 _597_
*3307 _598_
*3308 _599_
*3309 _600_
*3310 _601_
*3311 _602_
*3312 _603_
*3313 _604_
*3314 _605_
*3315 _606_
*3316 _607_
*3317 _608_
*3318 _609_
*3319 _610_
*3320 _611_
*3321 _612_
*3322 _613_
*3323 _614_
*3324 _615_
*3325 _616_
*3326 _617_
*3327 _618_
*3328 _619_
*3329 _620_
*3330 _621_
*3331 _622_
*3332 _623_
*3333 _624_
*3334 _625_
*3335 _626_
*3336 _627_
*3337 _628_
*3338 _629_
*3339 _630_
*3340 _631_
*3341 _632_
*3342 _633_
*3343 _634_
*3344 _635_
*3345 _636_
*3346 _637_
*3347 _638_
*3348 _639_
*3349 _640_
*3350 _641_
*3351 _642_
*3352 _643_
*3353 _644_
*3354 _645_
*3355 _646_
*3356 _647_
*3357 _648_
*3358 _649_
*3359 _650_
*3360 _651_
*3361 _652_
*3362 _653_
*3363 _654_
*3364 _655_
*3365 _656_
*3366 _657_
*3367 _658_
*3368 _659_
*3369 _660_
*3370 clkbuf_0__017_
*3371 clkbuf_0__017__regs
*3372 clkbuf_0_clk
*3373 clkbuf_0_clk_delayed
*3374 clkbuf_0_clk_regs
*3375 clkbuf_1_0__f__017_
*3376 clkbuf_1_0__f__017__regs
*3377 clkbuf_1_0__f_clk
*3378 clkbuf_1_1__f__017__regs
*3379 clkbuf_1_1__f_clk
*3380 clkbuf_2_0__f_clk_delayed
*3381 clkbuf_2_1__f_clk_delayed
*3382 clkbuf_2_2__f_clk_delayed
*3383 clkbuf_2_3__f_clk_delayed
*3384 clkbuf_4_0_0_clk_regs
*3385 clkbuf_4_10_0_clk_regs
*3386 clkbuf_4_11_0_clk_regs
*3387 clkbuf_4_12_0_clk_regs
*3388 clkbuf_4_13_0_clk_regs
*3389 clkbuf_4_14_0_clk_regs
*3390 clkbuf_4_15_0_clk_regs
*3391 clkbuf_4_1_0_clk_regs
*3392 clkbuf_4_2_0_clk_regs
*3393 clkbuf_4_3_0_clk_regs
*3394 clkbuf_4_4_0_clk_regs
*3395 clkbuf_4_5_0_clk_regs
*3396 clkbuf_4_6_0_clk_regs
*3397 clkbuf_4_7_0_clk_regs
*3398 clkbuf_4_8_0_clk_regs
*3399 clkbuf_4_9_0_clk_regs
*3400 clkbuf_5_0__f_clk_regs
*3401 clkbuf_5_10__f_clk_regs
*3402 clkbuf_5_11__f_clk_regs
*3403 clkbuf_5_12__f_clk_regs
*3404 clkbuf_5_13__f_clk_regs
*3405 clkbuf_5_14__f_clk_regs
*3406 clkbuf_5_15__f_clk_regs
*3407 clkbuf_5_16__f_clk_regs
*3408 clkbuf_5_17__f_clk_regs
*3409 clkbuf_5_18__f_clk_regs
*3410 clkbuf_5_19__f_clk_regs
*3411 clkbuf_5_1__f_clk_regs
*3412 clkbuf_5_20__f_clk_regs
*3413 clkbuf_5_21__f_clk_regs
*3414 clkbuf_5_22__f_clk_regs
*3415 clkbuf_5_23__f_clk_regs
*3416 clkbuf_5_24__f_clk_regs
*3417 clkbuf_5_25__f_clk_regs
*3418 clkbuf_5_26__f_clk_regs
*3419 clkbuf_5_27__f_clk_regs
*3420 clkbuf_5_28__f_clk_regs
*3421 clkbuf_5_29__f_clk_regs
*3422 clkbuf_5_2__f_clk_regs
*3423 clkbuf_5_30__f_clk_regs
*3424 clkbuf_5_31__f_clk_regs
*3425 clkbuf_5_3__f_clk_regs
*3426 clkbuf_5_4__f_clk_regs
*3427 clkbuf_5_5__f_clk_regs
*3428 clkbuf_5_6__f_clk_regs
*3429 clkbuf_5_7__f_clk_regs
*3430 clkbuf_5_8__f_clk_regs
*3431 clkbuf_5_9__f_clk_regs
*3432 clkbuf_leaf_0_clk
*3433 clkbuf_leaf_1_clk
*3434 clkbuf_leaf_2_clk
*3435 clkbuf_leaf_3_clk
*3436 clkbuf_leaf_4_clk
*3437 clkbuf_leaf_5_clk
*3438 clkbuf_leaf_6_clk
*3439 clkbuf_regs_0_clk
*3440 clkbuf_regs_1_clk
*3441 clkload0
*3442 clkload1
*3443 clkload10
*3444 clkload11
*3445 clkload12
*3446 clkload13
*3447 clkload14
*3448 clkload15
*3449 clkload16
*3450 clkload17
*3451 clkload18
*3452 clkload19
*3453 clkload2
*3454 clkload20
*3455 clkload21
*3456 clkload3
*3457 clkload4
*3458 clkload5
*3459 clkload6
*3460 clkload7
*3461 clkload8
*3462 clkload9
*3463 delaybuf_0_clk
*3464 delaybuf_10_clk
*3465 delaybuf_11_clk
*3466 delaybuf_12_clk
*3467 delaybuf_13_clk
*3468 delaybuf_14_clk
*3469 delaybuf_15_clk
*3470 delaybuf_16_clk
*3471 delaybuf_17_clk
*3472 delaybuf_18_clk
*3473 delaybuf_19_clk
*3474 delaybuf_1_clk
*3475 delaybuf_20_clk
*3476 delaybuf_21_clk
*3477 delaybuf_22_clk
*3478 delaybuf_23_clk
*3479 delaybuf_24_clk
*3480 delaybuf_25_clk
*3481 delaybuf_26_clk
*3482 delaybuf_27_clk
*3483 delaybuf_28_clk
*3484 delaybuf_2_clk
*3485 delaybuf_3_clk
*3486 delaybuf_4_clk
*3487 delaybuf_5_clk
*3488 delaybuf_6_clk
*3489 delaybuf_7_clk
*3490 delaybuf_8_clk
*3491 delaybuf_9_clk
*3492 fanout38
*3493 fanout39
*3494 fanout40
*3495 fanout41
*3496 fanout42
*3497 fanout43
*3498 fanout44
*3499 fanout45
*3500 fanout46
*3501 fanout47
*3502 fanout48
*3503 fanout49
*3504 fanout50
*3505 fanout51
*3506 fanout52
*3507 fanout53
*3508 fanout54
*3509 fanout55
*3510 fanout56
*3511 fanout57
*3512 fanout58
*3513 fanout59
*3514 fanout60
*3515 fanout61
*3516 fanout62
*3517 fanout63
*3518 fanout64
*3519 fanout65
*3520 fanout66
*3521 fanout67
*3522 fanout68
*3523 fanout69
*3524 fanout70
*3525 fanout71
*3526 fanout72
*3527 fanout73
*3528 fanout74
*3529 fanout75
*3530 fanout76
*3531 fanout77
*3532 fanout78
*3533 fanout79
*3534 fanout80
*3535 fanout81
*3536 fanout82
*3537 fanout83
*3538 fanout84
*3539 fanout85
*3540 fanout86
*3541 fanout87
*3542 fanout88
*3543 fanout89
*3544 fanout90
*3545 fanout91
*3546 fanout92
*3547 fanout93
*3548 fanout94
*3549 fanout95
*3550 fanout96
*3551 fanout97
*3552 hold100
*3553 hold101
*3554 hold102
*3555 hold103
*3556 hold104
*3557 hold105
*3558 hold106
*3559 hold107
*3560 hold108
*3561 hold109
*3562 hold110
*3563 hold111
*3564 hold112
*3565 hold113
*3566 hold114
*3567 hold115
*3568 hold116
*3569 hold117
*3570 hold118
*3571 hold119
*3572 hold120
*3573 hold121
*3574 hold122
*3575 hold123
*3576 hold124
*3577 hold125
*3578 hold126
*3579 hold127
*3580 hold128
*3581 hold129
*3582 input1
*3583 input10
*3584 input11
*3585 input12
*3586 input13
*3587 input2
*3588 input3
*3589 input4
*3590 input5
*3591 input6
*3592 input7
*3593 input8
*3594 input9
*3595 output14
*3596 output15
*3597 output16
*3598 output17
*3599 output18
*3600 output19
*3601 output20
*3602 output21
*3603 output22
*3604 output23
*3605 output24
*3606 output25
*3607 output26
*3608 output27
*3609 output28
*3610 output29
*3611 output30
*3612 output31
*3613 output32
*3614 output33
*3615 output34
*3616 output35
*3617 output36
*3618 output37
*3619 u_clkbuf_analog_pin0\.u_buf
*3620 u_clkbuf_analog_pin1\.u_buf
*3621 u_clkbuf_analog_pin2\.u_buf
*3622 u_custom_cells\.u_final_mux\.SwitchMatrixMultiplexer_inv_inst
*3623 u_custom_cells\.u_latch0\.latch_inst
*3624 u_custom_cells\.u_latmux\.SwitchMatrixMultiplexer_inst
*3625 u_custom_cells\.u_mux0\.mux_inst
*3626 u_custom_cells\.u_mux1\.mux_inv_inst
*3627 u_delay_line
*3628 u_multimode_dll

*PORTS
analog_pin0 I
analog_pin1 I
analog_pin2 I
clk I
ena I
rst_n I
ui_in[0] I
ui_in[1] I
ui_in[2] I
ui_in[3] I
ui_in[4] I
ui_in[5] I
ui_in[6] I
ui_in[7] I
uio_in[0] I
uio_in[1] I
uio_in[2] I
uio_in[3] I
uio_in[4] I
uio_in[5] I
uio_in[6] I
uio_in[7] I
uio_oe[0] O
uio_oe[1] O
uio_oe[2] O
uio_oe[3] O
uio_oe[4] O
uio_oe[5] O
uio_oe[6] O
uio_oe[7] O
uio_out[0] O
uio_out[1] O
uio_out[2] O
uio_out[3] O
uio_out[4] O
uio_out[5] O
uio_out[6] O
uio_out[7] O
uo_out[0] O
uo_out[1] O
uo_out[2] O
uo_out[3] O
uo_out[4] O
uo_out[5] O
uo_out[6] O
uo_out[7] O

*D_NET *3 0.00118965
*CONN
*P analog_pin0 I
*I *3619:X O *D sg13g2_buf_16
*CAP
1 analog_pin0 0.000594823
2 *3619:X 0
3 *3:6 0.000594823
4 analog_pin0 *282:46 0
*RES
1 *3619:X *3:6 40 
2 *3:6 analog_pin0 2.2969 
*END

*D_NET *4 0.00597277
*CONN
*P analog_pin1 I
*I *3620:X O *D sg13g2_buf_16
*CAP
1 analog_pin1 4.2636e-05
2 *3620:X 0
3 *4:15 0.00298638
4 *4:6 0.00294375
5 *4:15 *462:42 0
*RES
1 *3620:X *4:6 40 
2 *4:6 *4:15 32.257 
3 *4:15 analog_pin1 20.1545 
*END

*D_NET *5 0.00397326
*CONN
*P analog_pin2 I
*I *3621:X O *D sg13g2_buf_16
*CAP
1 analog_pin2 0.00198663
2 *3621:X 0
3 *5:6 0.00198663
4 analog_pin2 *3627:trim[14] 0
5 analog_pin2 *460:38 0
*RES
1 *3621:X *5:6 40 
2 *5:6 analog_pin2 47.416 
*END

*D_NET *6 0.0214285
*CONN
*P clk I
*I *3478:A I *D sg13g2_buf_16
*I *3372:A I *D sg13g2_buf_16
*CAP
1 clk 0.00253554
2 *3478:A 5.79818e-05
3 *3372:A 0.00018403
4 *6:48 0.00328982
5 *6:32 0.00381909
6 *6:26 0.00470483
7 *6:14 0.00683716
8 *3372:A *345:18 0
9 *3372:A *345:26 0
10 *3372:A *428:14 0
11 *6:14 *3184:RESET_B 0
12 *6:14 *3486:A 0
13 *6:14 *8:9 0
14 *6:14 *95:18 0
15 *6:14 *288:17 0
16 *6:14 *295:16 0
17 *6:14 *318:80 0
18 *6:14 *505:8 0
19 *6:14 *506:14 0
20 *6:14 *544:24 0
21 *6:14 *706:18 0
22 *6:26 *291:119 0
23 *6:26 *347:10 0
24 *6:26 *627:101 0
25 *6:26 *706:18 0
26 *6:26 *708:18 0
27 *6:32 *3628:ext_trim[13] 0
28 *6:32 *3628:ext_trim[14] 0
29 *6:32 *289:35 0
30 *6:32 *289:41 0
31 *6:32 *345:18 0
32 *6:32 *347:10 0
33 *6:32 *428:14 0
34 *6:32 *529:14 0
35 *6:32 *610:82 0
36 *6:48 *3464:A 0
37 *6:48 *101:14 0
38 *6:48 *103:10 0
39 *6:48 *295:16 0
40 *6:48 *310:28 0
41 *6:48 *352:22 0
42 *6:48 *544:22 0
*RES
1 clk *6:14 42.6291 
2 *6:14 *6:26 48.5387 
3 *6:26 *6:32 38.4164 
4 *6:32 *3372:A 21.8051 
5 *6:14 *6:48 44.0814 
6 *6:48 *3478:A 40.5356 
*END

*D_NET *7 0.0529336
*CONN
*P ena I
*I *3628:enable I *D multimode_dll
*I *709:A I *D sg13g2_antennanp
*CAP
1 ena 1.84946e-05
2 *3628:enable 0.000110118
3 *709:A 0
4 *7:47 0.000588362
5 *7:39 0.000698479
6 *7:37 0.00228808
7 *7:35 0.00395278
8 *7:31 0.00184647
9 *7:25 0.00258026
10 *7:15 0.00245259
11 *7:9 0.00500577
12 *7:7 0.00497016
13 *3628:enable *3628:osc 0
14 *3628:enable *3628:resetb 0
15 *7:9 *3172:D 0
16 *7:9 *15:9 0
17 *7:9 *27:14 0.00179868
18 *7:9 *243:35 0.000460577
19 *7:9 *249:18 0.00345334
20 *7:9 *256:48 0
21 *7:9 *275:18 0
22 *7:9 *517:16 0
23 *7:9 *562:14 0
24 *7:9 *580:18 0.00111795
25 *7:9 *610:20 0.000761731
26 *7:25 uo_out[4] 0
27 *7:25 uo_out[5] 0
28 *7:25 *13:9 0.00102352
29 *7:25 *215:12 0
30 *7:25 *512:30 0.000176396
31 *7:25 *514:30 0.00191724
32 *7:25 *568:16 0.00144331
33 *7:25 *570:14 0
34 *7:25 *584:20 0.00251724
35 *7:31 *579:64 0.000272931
36 *7:35 *245:43 0
37 *7:35 *385:78 0
38 *7:35 *423:30 0.0018549
39 *7:35 *423:36 0.00218318
40 *7:35 *576:8 0.000436699
41 *7:35 *582:18 0
42 *7:35 *590:36 0.000442886
43 *7:35 *612:14 0
44 *7:37 *3628:clk2_phase_sel[3] 0
45 *7:37 *3628:ext_trim[20] 0
46 *7:37 *385:82 0.00712967
47 *7:37 *408:14 0
48 *7:37 *438:12 0
49 *7:37 *439:10 0
50 *7:37 *514:10 0
51 *7:47 *3628:resetb 0
52 *7:47 *385:82 0
53 *7:47 *385:86 0
54 *7:47 *408:10 0.000288502
55 *7:47 *408:14 0.00114332
56 *7:47 *599:81 0
*RES
1 ena *7:7 20.1957 
2 *7:7 *7:9 59.5855 
3 *7:9 *7:15 40.3502 
4 *7:15 *7:25 49.8906 
5 *7:25 *7:31 41.8334 
6 *7:31 *7:35 20.909 
7 *7:35 *7:37 32.9806 
8 *7:37 *7:39 20 
9 *7:39 *7:47 48.4563 
10 *7:47 *709:A 20 
11 *7:39 *3628:enable 1.16132 
*END

*D_NET *8 0.0224667
*CONN
*P rst_n I
*I *3582:A I *D sg13g2_buf_1
*CAP
1 rst_n 0.00151621
2 *3582:A 0.000163474
3 *8:13 0.00290701
4 *8:11 0.00274353
5 *8:9 0.00151621
6 *3582:A *3016:B 0
7 *3582:A *258:39 0
8 *3582:A *632:46 0
9 *8:9 *3440:A 0
10 *8:9 *75:8 0.00157262
11 *8:9 *106:16 0
12 *8:9 *236:44 0
13 *8:9 *260:26 0
14 *8:9 *269:14 0
15 *8:9 *507:8 0
16 *8:9 *632:60 0
17 *8:13 *3016:B 0
18 *8:13 *258:41 0.00713994
19 *8:13 *267:25 0.00287978
20 *8:13 *267:36 0.000770753
21 *8:13 *525:14 0
22 *8:13 *632:46 0.00125716
23 *6:14 *8:9 0
*RES
1 rst_n *8:9 35.2234 
2 *8:9 *8:11 20 
3 *8:11 *8:13 40.6438 
4 *8:13 *3582:A 41.4008 
*END

*D_NET *9 0.00118142
*CONN
*P ui_in[0] I
*I *3587:A I *D sg13g2_buf_1
*CAP
1 ui_in[0] 0.000348578
2 *3587:A 0.000348578
3 *3587:A *2949:B 0.000241983
4 *3587:A *10:7 0
5 *3587:A *249:12 0
6 *3587:A *275:10 0
7 *3587:A *606:48 0.000242281
*RES
1 ui_in[0] *3587:A 43.296 
*END

*D_NET *10 0.0219108
*CONN
*P ui_in[1] I
*I *3588:A I *D sg13g2_buf_1
*CAP
1 ui_in[1] 0.000150089
2 *3588:A 0
3 *10:15 3.91939e-05
4 *10:9 0.00438378
5 *10:7 0.00449468
6 *10:7 *519:36 7.30101e-05
7 *10:7 *562:10 0.000178388
8 *10:9 *11:9 0.00796941
9 *10:9 *13:9 0
10 *10:9 *517:24 0
11 *10:9 *569:14 0.00232032
12 *10:9 *580:24 0
13 *10:9 *584:20 0
14 *10:9 *606:20 0.000534671
15 *10:9 *679:46 0.0017673
16 *10:15 uo_out[0] 0
17 *3587:A *10:7 0
*RES
1 ui_in[1] *10:7 21.4317 
2 *10:7 *10:9 53.0965 
3 *10:9 *10:15 40.3502 
4 *10:15 *3588:A 20 
*END

*D_NET *11 0.0210275
*CONN
*P ui_in[2] I
*I *3589:A I *D sg13g2_buf_1
*CAP
1 ui_in[2] 0.000247816
2 *3589:A 0
3 *11:13 0
4 *11:9 0.00512378
5 *11:7 0.00537159
6 *11:9 *242:10 0.00053586
7 *11:9 *512:36 0.000505148
8 *11:9 *569:14 0
9 *11:9 *573:14 0
10 *11:9 *581:10 0
11 *11:9 *600:81 0
12 *11:9 *608:58 0
13 *11:9 *609:30 0.000262283
14 *11:9 *609:40 0.000442867
15 *11:9 *609:101 0.000568783
16 *10:9 *11:9 0.00796941
*RES
1 ui_in[2] *11:7 21.6789 
2 *11:7 *11:9 57.4225 
3 *11:9 *11:13 40 
4 *11:13 *3589:A 20 
*END

*D_NET *12 0.0163041
*CONN
*P ui_in[3] I
*I *3590:A I *D sg13g2_buf_1
*CAP
1 ui_in[3] 0.00198727
2 *3590:A 0
3 *12:17 0
4 *12:13 0.00521415
5 *12:11 0.00720141
6 *12:11 *3359:D 0
7 *12:11 *73:8 0
8 *12:11 *98:10 0
9 *12:11 *271:8 0
10 *12:11 *277:28 0
11 *12:11 *508:30 0
12 *12:11 *520:28 0
13 *12:11 *532:8 0
14 *12:11 *606:56 0
15 *12:11 *623:89 0
16 *12:11 *623:140 0
17 *12:11 *689:14 0.000124547
18 *12:11 *689:27 0
19 *12:13 *34:16 0
20 *12:13 *37:16 0
21 *12:13 *51:18 0
22 *12:13 *51:29 0
23 *12:13 *246:20 0
24 *12:13 *247:52 0
25 *12:13 *344:24 0
26 *12:13 *344:32 0
27 *12:13 *431:31 0.000406456
28 *12:13 *431:42 0.0006233
29 *12:13 *516:14 0
30 *12:13 *580:32 0
31 *12:13 *583:125 0.000469957
32 *12:13 *595:63 0
33 *12:13 *615:98 0
34 *12:13 *616:125 0
35 *12:13 *675:14 0.000277037
*RES
1 ui_in[3] *12:11 35.6972 
2 *12:11 *12:13 51.5824 
3 *12:13 *12:17 40 
4 *12:17 *3590:A 20 
*END

*D_NET *13 0.0156685
*CONN
*P ui_in[4] I
*I *3591:A I *D sg13g2_buf_1
*CAP
1 ui_in[4] 2.92447e-05
2 *3591:A 0.000273706
3 *13:21 0.00122013
4 *13:15 0.00144924
5 *13:9 0.00398324
6 *13:7 0.00350967
7 *3591:A *3496:A 0
8 *3591:A *343:42 4.77425e-05
9 *13:9 *517:24 0
10 *13:9 *519:36 0
11 *13:9 *569:14 0
12 *13:9 *580:24 0
13 *13:9 *584:20 0
14 *13:9 *606:44 0
15 *13:9 *679:32 0
16 *13:9 *679:46 0
17 *13:15 uio_out[1] 0
18 *13:15 uio_out[2] 0.00127019
19 *13:15 *514:42 0.0003356
20 *13:15 *606:28 0
21 *13:21 uo_out[7] 0
22 *13:21 *2953:A 0.000143494
23 *13:21 *3306:RESET_B 0
24 *13:21 *3340:D 0.000961802
25 *13:21 *29:24 0.000595794
26 *13:21 *366:46 0
27 *13:21 *568:8 0.000175721
28 *13:21 *586:106 0
29 *13:21 *614:33 0.000649444
30 *7:25 *13:9 0.00102352
31 *10:9 *13:9 0
*RES
1 ui_in[4] *13:7 20.1957 
2 *13:7 *13:9 40.3348 
3 *13:9 *13:15 46.0358 
4 *13:15 *13:21 30.5575 
5 *13:21 *3591:A 42.266 
*END

*D_NET *14 0.0197007
*CONN
*P ui_in[5] I
*I *3592:A I *D sg13g2_buf_1
*CAP
1 ui_in[5] 0.0010822
2 *3592:A 0
3 *14:23 0.000144278
4 *14:17 0.00118244
5 *14:13 0.00701769
6 *14:11 0.00597953
7 *14:9 0.0010822
8 *14:9 *15:9 0
9 *14:9 *243:47 1.50092e-05
10 *14:9 *519:36 0.000209705
11 *14:9 *569:14 0
12 *14:13 *19:11 0
13 *14:13 *20:13 0
14 *14:13 *270:16 0
15 *14:13 *641:30 0
16 *14:17 *20:21 0.000870263
17 *14:17 *293:12 0.000140972
18 *14:17 *641:20 0.00155963
19 *14:23 *18:25 0
20 *14:23 *647:31 0.000176252
21 *14:23 *692:69 0.000240524
*RES
1 ui_in[5] *14:9 32.2261 
2 *14:9 *14:11 20 
3 *14:11 *14:13 53.251 
4 *14:13 *14:17 30.918 
5 *14:17 *14:23 41.6171 
6 *14:23 *3592:A 20 
*END

*D_NET *15 0.0334497
*CONN
*P ui_in[6] I
*I *3593:A I *D sg13g2_buf_1
*CAP
1 ui_in[6] 0.00168882
2 *3593:A 7.97075e-05
3 *15:29 0.000299522
4 *15:21 0.00191311
5 *15:19 0.00189011
6 *15:13 0.0012622
7 *15:9 0.0027542
8 *3593:A *2975:A 0.000144542
9 *3593:A *625:12 0.000144542
10 *15:9 *2974:B1 0
11 *15:9 *2974:A1 0
12 *15:9 *16:9 0
13 *15:9 *562:14 0
14 *15:9 *569:22 0
15 *15:9 *610:24 0.00140932
16 *15:9 *639:38 0.00166746
17 *15:9 *674:14 0.000501962
18 *15:9 *679:24 2.14736e-05
19 *15:9 *690:26 0.000858587
20 *15:9 *700:14 0
21 *15:13 *2941:A1 0
22 *15:13 *3172:RESET_B 0
23 *15:13 *3368:RESET_B 0.000711013
24 *15:13 *96:10 0.000126358
25 *15:13 *256:34 0
26 *15:13 *256:48 0.00181854
27 *15:13 *629:67 0.000954584
28 *15:19 *343:20 0
29 *15:21 *16:13 0.00800146
30 *15:21 *17:13 0
31 *15:21 *343:18 0.00440559
32 *15:21 *525:26 0.00244238
33 *15:29 *54:14 0.000176296
34 *15:29 *522:14 0
35 *15:29 *555:12 0
36 *15:29 *701:127 0.000177894
37 *7:9 *15:9 0
38 *14:9 *15:9 0
*RES
1 ui_in[6] *15:9 39.4567 
2 *15:9 *15:13 33.9462 
3 *15:13 *15:19 41.8334 
4 *15:19 *15:21 36.9358 
5 *15:21 *15:29 42.0291 
6 *15:29 *3593:A 40.9682 
*END

*D_NET *16 0.0239996
*CONN
*P ui_in[7] I
*I *3594:A I *D sg13g2_buf_1
*CAP
1 ui_in[7] 0.00255643
2 *3594:A 0
3 *16:17 0
4 *16:13 0.00399854
5 *16:11 0.00399854
6 *16:9 0.00255643
7 *16:9 *17:9 0
8 *16:9 *71:14 0
9 *16:9 *92:18 0
10 *16:9 *297:24 7.33225e-05
11 *16:9 *300:30 0
12 *16:9 *573:22 0.0015533
13 *16:9 *617:22 0
14 *16:9 *617:28 0
15 *16:9 *679:24 0
16 *16:13 *17:13 0
17 *16:13 *256:30 0
18 *16:13 *525:26 0
19 *16:13 *544:12 0
20 *16:13 *600:47 0.00126155
21 *16:13 *617:14 0
22 *16:13 *648:14 0
23 *15:9 *16:9 0
24 *15:21 *16:13 0.00800146
*RES
1 ui_in[7] *16:9 43.999 
2 *16:9 *16:11 20 
3 *16:11 *16:13 49.2958 
4 *16:13 *16:17 40 
5 *16:17 *3594:A 40 
*END

*D_NET *17 0.0244737
*CONN
*P uio_in[0] I
*I *3583:A I *D sg13g2_buf_1
*CAP
1 uio_in[0] 0.0021084
2 *3583:A 0
3 *17:21 0.000858857
4 *17:13 0.00388769
5 *17:11 0.00302883
6 *17:9 0.0021084
7 *17:9 *18:9 0
8 *17:9 *71:14 0
9 *17:9 *72:10 0
10 *17:9 *92:18 0
11 *17:9 *352:30 0
12 *17:9 *519:22 0
13 *17:9 *600:81 0
14 *17:9 *690:20 0
15 *17:13 *257:18 0
16 *17:13 *265:20 0.00489417
17 *17:13 *343:18 0.0044054
18 *17:13 *525:26 0.00195627
19 *17:13 *555:22 0
20 *17:13 *628:12 0
21 *17:21 *237:10 0
22 *17:21 *247:24 0.000300568
23 *17:21 *256:91 0.000285423
24 *17:21 *265:20 0.000639707
25 *17:21 *291:58 0
26 *17:21 *701:87 0
27 *17:21 *702:61 0
28 *15:21 *17:13 0
29 *16:9 *17:9 0
30 *16:13 *17:13 0
*RES
1 uio_in[0] *17:9 39.2713 
2 *17:9 *17:11 20 
3 *17:11 *17:13 46.5766 
4 *17:13 *17:21 48.0855 
5 *17:21 *3583:A 40 
*END

*D_NET *18 0.0151789
*CONN
*P uio_in[1] I
*I *3584:A I *D sg13g2_buf_1
*CAP
1 uio_in[1] 0.000406342
2 *3584:A 0
3 *18:25 0.000174693
4 *18:19 0.00165267
5 *18:11 0.00610038
6 *18:9 0.00502874
7 *18:9 *3353:D 0
8 *18:9 *19:9 0
9 *18:9 *243:61 0.000177891
10 *18:9 *625:91 0.000177891
11 *18:9 *639:44 0
12 *18:11 *19:11 0
13 *18:11 *241:20 0
14 *18:11 *344:20 0
15 *18:19 *19:19 0
16 *18:19 *241:20 0
17 *18:19 *591:62 0.000497981
18 *18:19 *624:26 0.000609673
19 *18:19 *641:20 0
20 *18:25 *555:12 8.00842e-05
21 *18:25 *629:12 0.000272598
22 *18:25 *692:69 0
23 *14:23 *18:25 0
24 *17:9 *18:9 0
*RES
1 uio_in[1] *18:9 43.4093 
2 *18:9 *18:11 51.5 
3 *18:11 *18:19 33.7929 
4 *18:19 *18:25 41.8334 
5 *18:25 *3584:A 20 
*END

*D_NET *19 0.0222375
*CONN
*P uio_in[2] I
*I *3585:A I *D sg13g2_buf_1
*CAP
1 uio_in[2] 0.000392706
2 *3585:A 0
3 *19:25 5.46303e-05
4 *19:19 0.00118695
5 *19:11 0.00590192
6 *19:9 0.0051623
7 *19:9 *20:11 0
8 *19:9 *99:10 0
9 *19:9 *243:47 0
10 *19:9 *244:10 0
11 *19:9 *249:18 0.00038373
12 *19:11 *241:20 0
13 *19:11 *270:16 0.00795487
14 *19:11 *344:20 0
15 *19:19 *600:12 0.000206766
16 *19:19 *600:39 0.000435054
17 *19:19 *607:14 0.00050102
18 *19:19 *624:26 0
19 *19:19 *630:26 5.75864e-05
20 *19:19 *631:16 0
21 *14:13 *19:11 0
22 *18:9 *19:9 0
23 *18:11 *19:11 0
24 *18:19 *19:19 0
*RES
1 uio_in[2] *19:9 43.4093 
2 *19:9 *19:11 53.0038 
3 *19:11 *19:19 31.5875 
4 *19:19 *19:25 40.5974 
5 *19:25 *3585:A 20 
*END

*D_NET *20 0.0206247
*CONN
*P uio_in[3] I
*I *3586:A I *D sg13g2_buf_1
*CAP
1 uio_in[3] 0.000150458
2 *3586:A 0
3 *20:27 0.000118781
4 *20:21 0.00191224
5 *20:13 0.00673434
6 *20:11 0.00509134
7 *20:11 *243:47 8.04683e-05
8 *20:11 *569:14 0
9 *20:13 *293:22 0
10 *20:13 *533:20 0.00552593
11 *20:13 *563:22 0
12 *20:13 *641:30 0
13 *20:21 *54:14 0
14 *20:21 *293:12 0.000140883
15 *20:21 *522:14 0
16 *20:21 *641:20 0
17 *20:21 *698:45 0
18 *20:21 *702:61 0
19 *20:27 *237:10 0
20 *20:27 *291:58 0
21 *14:13 *20:13 0
22 *14:17 *20:21 0.000870263
23 *19:9 *20:11 0
*RES
1 uio_in[3] *20:11 41.2257 
2 *20:11 *20:13 52.5094 
3 *20:13 *20:21 35.9135 
4 *20:21 *20:27 40.8446 
5 *20:27 *3586:A 20 
*END

*D_NET *25 0.0136457
*CONN
*P uio_oe[0] O
*I *3595:X O *D sg13g2_buf_1
*CAP
1 uio_oe[0] 0.000359021
2 *3595:X 0.00235131
3 *25:44 0.000727492
4 *25:34 0.00105091
5 *25:26 0.00303375
6 *25:26 *2952:A 5.39578e-05
7 *25:26 *2954:B 0
8 *25:26 *2955:A 0.000402738
9 *25:26 *3166:B 0.000209384
10 *25:26 *3292:D 0.000532257
11 *25:26 *3304:D 0.000264317
12 *25:26 *3528:A 0
13 *25:26 *3597:A 0.000467837
14 *25:26 *26:10 0.000111594
15 *25:26 *26:18 0.00106185
16 *25:26 *59:14 0
17 *25:26 *514:42 0.000241195
18 *25:26 *515:22 0.000468165
19 *25:26 *556:8 0.000330789
20 *25:26 *558:24 0
21 *25:26 *558:42 4.77699e-05
22 *25:26 *608:50 0
23 *25:26 *608:64 4.78853e-05
24 *25:26 *622:10 4.75442e-05
25 *25:34 uio_out[4] 0
26 *25:34 *30:20 0
27 *25:34 *365:12 4.82481e-05
28 *25:34 *365:22 0.00037606
29 *25:34 *379:20 0.000124859
30 *25:34 *557:8 0.000125175
31 *25:34 *581:10 0
32 *25:34 *587:94 0.000376101
33 *25:44 *3166:B 0.000402535
34 *25:44 *365:35 7.30101e-05
35 *25:44 *561:36 1.54008e-05
36 *25:44 *588:46 2.14736e-05
37 *25:44 *616:60 0.000273053
*RES
1 *3595:X *25:26 45.3586 
2 *25:26 *25:34 46.7877 
3 *25:34 *25:44 43.8625 
4 *25:44 uio_oe[0] 22.4205 
*END

*D_NET *26 0.012439
*CONN
*P uio_oe[1] O
*I *3596:X O *D sg13g2_buf_1
*CAP
1 uio_oe[1] 0.000132739
2 *3596:X 0.000248824
3 *26:26 0.000855584
4 *26:18 0.00305929
5 *26:10 0.00258527
6 uio_oe[1] uio_oe[2] 0
7 *26:10 uo_out[3] 0
8 *26:10 *584:45 0
9 *26:18 *2930:A 0.000209796
10 *26:18 *2959:A 0.000306223
11 *26:18 *3292:D 0
12 *26:18 *3305:D 0.000307107
13 *26:18 *3528:A 0.000242423
14 *26:18 *27:14 0
15 *26:18 *59:14 0.000177367
16 *26:18 *379:20 0
17 *26:18 *512:30 0.000663989
18 *26:18 *514:42 0
19 *26:18 *515:22 0
20 *26:18 *557:12 0
21 *26:18 *584:26 0
22 *26:18 *606:28 0.000728442
23 *26:18 *609:56 0
24 *26:26 uio_out[6] 0.000178388
25 *26:26 *2959:A 0
26 *26:26 *27:14 0
27 *26:26 *517:16 0.00014514
28 *26:26 *584:26 0.000891044
29 *26:26 *606:48 0
30 *26:26 *679:36 0.000533932
31 *25:26 *26:10 0.000111594
32 *25:26 *26:18 0.00106185
*RES
1 *3596:X *26:10 41.8437 
2 *26:10 *26:18 44.3492 
3 *26:18 *26:26 48.0855 
4 *26:26 uio_oe[1] 20.9373 
*END

*D_NET *27 0.0170425
*CONN
*P uio_oe[2] O
*I *3597:X O *D sg13g2_buf_1
*CAP
1 uio_oe[2] 6.33185e-05
2 *3597:X 0.000248602
3 *27:14 0.00314865
4 *27:12 0.00308533
5 *27:10 0.000248602
6 uio_oe[2] uio_oe[3] 0
7 *27:10 uo_out[0] 0
8 *27:10 uo_out[1] 0.000601242
9 *27:10 *3307:RESET_B 4.75425e-05
10 *27:10 *571:18 0
11 *27:10 *611:41 7.51285e-05
12 *27:10 *611:64 4.68833e-05
13 *27:14 *511:36 0.00153931
14 *27:14 *512:30 0
15 *27:14 *513:14 0.00231742
16 *27:14 *515:14 0.0010848
17 *27:14 *517:16 0.000469478
18 *27:14 *557:12 0
19 *27:14 *584:14 0
20 *27:14 *584:26 0.00124787
21 *27:14 *606:36 0.00101961
22 uio_oe[1] uio_oe[2] 0
23 *7:9 *27:14 0.00179868
24 *26:18 *27:14 0
25 *26:26 *27:14 0
*RES
1 *3597:X *27:10 43.3578 
2 *27:10 *27:12 20 
3 *27:12 *27:14 37.0903 
4 *27:14 uio_oe[2] 20.4429 
*END

*D_NET *28 0.0144283
*CONN
*P uio_oe[3] O
*I *3598:X O *D sg13g2_buf_1
*CAP
1 uio_oe[3] 0.0024789
2 *3598:X 0
3 *28:10 0.00492158
4 *28:6 0.00244268
5 uio_oe[3] *3167:B 0
6 uio_oe[3] *298:62 0
7 uio_oe[3] *351:24 0
8 uio_oe[3] *427:63 0
9 uio_oe[3] *429:39 0
10 uio_oe[3] *517:10 0
11 uio_oe[3] *587:116 0
12 *28:10 *242:22 0.00391315
13 *28:10 *270:20 0
14 *28:10 *422:62 0.000671967
15 uio_oe[2] uio_oe[3] 0
*RES
1 *3598:X *28:6 40 
2 *28:6 *28:10 45.8427 
3 *28:10 uio_oe[3] 39.6524 
*END

*D_NET *29 0.0200881
*CONN
*P uio_oe[4] O
*I *3599:X O *D sg13g2_buf_1
*CAP
1 uio_oe[4] 0.00178037
2 *3599:X 0.000210264
3 *29:36 0.00178037
4 *29:32 0.000380392
5 *29:24 0.00314562
6 *29:8 0.00297549
7 uio_oe[4] uio_oe[5] 0
8 uio_oe[4] *65:34 0
9 uio_oe[4] *66:22 0.00159783
10 uio_oe[4] *345:46 0
11 uio_oe[4] *345:48 0
12 uio_oe[4] *345:62 0.000726508
13 uio_oe[4] *349:14 0.000444314
14 uio_oe[4] *495:19 0
15 uio_oe[4] *517:10 0
16 uio_oe[4] *609:8 0
17 uio_oe[4] *610:58 0
18 *29:8 uo_out[1] 0.000712431
19 *29:8 *281:20 7.48209e-05
20 *29:8 *511:30 0
21 *29:8 *512:22 0.000234224
22 *29:24 *2985:A1 0.000175693
23 *29:24 *3295:D 8.00842e-05
24 *29:24 *3321:D 0
25 *29:24 *3333:D 0.000824547
26 *29:24 *39:18 0.000240933
27 *29:24 *39:34 0
28 *29:24 *39:48 0
29 *29:24 *281:28 0.00101465
30 *29:24 *294:20 0.000967254
31 *29:24 *294:24 0.000208035
32 *29:24 *355:14 0
33 *29:24 *363:18 0
34 *29:24 *366:27 0
35 *29:24 *380:66 0.00037062
36 *29:24 *568:8 0.000143379
37 *29:24 *582:151 0.000208063
38 *29:24 *615:46 0.000306524
39 *29:24 *615:63 0.000291468
40 *29:24 *618:10 0
41 *29:32 *238:14 0
42 *29:32 *573:22 0.00047237
43 *29:32 *595:83 0.000126047
44 *13:21 *29:24 0.000595794
*RES
1 *3599:X *29:8 43.3166 
2 *29:8 *29:24 49.1799 
3 *29:24 *29:32 43.7286 
4 *29:32 *29:36 40 
5 *29:36 uio_oe[4] 37.4997 
*END

*D_NET *30 0.0153366
*CONN
*P uio_oe[5] O
*I *3600:X O *D sg13g2_buf_1
*CAP
1 uio_oe[5] 0.000496116
2 *3600:X 0.000816141
3 *30:20 0.00377524
4 *30:18 0.00327912
5 *30:16 0.000816141
6 uio_oe[5] uio_oe[6] 0
7 uio_oe[5] *519:44 0
8 uio_oe[5] *561:8 0.000176399
9 uio_oe[5] *610:58 0
10 *30:16 *3139:S 0.000112426
11 *30:16 *3142:A0 0.000132825
12 *30:16 *3158:A 0
13 *30:16 *3322:D 0
14 *30:16 *3344:CLK 0
15 *30:16 *215:12 0
16 *30:16 *355:14 8.02267e-05
17 *30:16 *570:14 0.000124547
18 *30:16 *571:18 0
19 *30:16 *585:75 0
20 *30:20 *89:14 0.00289565
21 *30:20 *89:18 0
22 *30:20 *365:48 0
23 *30:20 *380:38 0.000636902
24 *30:20 *556:12 0
25 *30:20 *561:48 0
26 *30:20 *573:14 0
27 *30:20 *581:10 0
28 *30:20 *587:94 0.000899776
29 *30:20 *608:82 0.00109507
30 *30:20 *618:90 0
31 uio_oe[4] uio_oe[5] 0
32 *25:34 *30:20 0
*RES
1 *3600:X *30:16 47.3439 
2 *30:16 *30:18 20 
3 *30:18 *30:20 35.7925 
4 *30:20 uio_oe[5] 24.2951 
*END

*D_NET *31 0.0398734
*CONN
*P uio_oe[6] O
*I *3601:X O *D sg13g2_buf_1
*CAP
1 uio_oe[6] 0.00170885
2 *3601:X 0
3 *31:28 0.00238197
4 *31:20 0.00287354
5 *31:16 0.00220042
6 *31:12 0.00202853
7 *31:10 0.00202853
8 *31:6 0
9 uio_oe[6] uio_oe[7] 0
10 uio_oe[6] *3073:A1 0
11 uio_oe[6] *3364:RESET_B 0
12 uio_oe[6] *80:10 0
13 uio_oe[6] *245:8 0
14 uio_oe[6] *247:60 0
15 uio_oe[6] *275:18 0
16 uio_oe[6] *289:15 0
17 uio_oe[6] *300:38 0.000337924
18 uio_oe[6] *346:16 0
19 uio_oe[6] *430:27 0
20 uio_oe[6] *519:44 0
21 uio_oe[6] *579:12 0.000335184
22 uio_oe[6] *609:95 0.000755858
23 uio_oe[6] *624:92 0
24 *31:12 *293:22 0
25 *31:12 *298:12 0.00980821
26 *31:12 *563:22 0.0103445
27 *31:20 *3355:CLK 0
28 *31:20 *3391:A 0
29 *31:20 *3441:A 0.000857836
30 *31:20 *3558:A 7.92265e-05
31 *31:20 *52:18 0.00111586
32 *31:20 *291:134 0
33 *31:20 *342:35 7.92265e-05
34 *31:20 *345:18 0.00153267
35 *31:20 *508:6 0
36 *31:28 *3239:CLK 0.000144868
37 *31:28 *162:12 0
38 *31:28 *317:16 0
39 *31:28 *342:35 0.000985643
40 *31:28 *346:18 0.000274527
41 *31:28 *431:23 0
42 *31:28 *672:8 0
43 uio_oe[5] uio_oe[6] 0
*RES
1 *3601:X *31:6 40 
2 *31:6 *31:10 40 
3 *31:10 *31:12 48.307 
4 *31:12 *31:16 40 
5 *31:16 *31:20 42.1656 
6 *31:20 *31:28 47.1894 
7 *31:28 uio_oe[6] 37.1495 
*END

*D_NET *32 0.00561975
*CONN
*P uio_oe[7] O
*I *3602:X O *D sg13g2_buf_1
*CAP
1 uio_oe[7] 0.00134572
2 *3602:X 0.000913447
3 *32:12 0.00225917
4 uio_oe[7] *247:60 0
5 uio_oe[7] *249:12 0
6 uio_oe[7] *275:18 0
7 uio_oe[7] *287:27 0
8 uio_oe[7] *345:87 0.000280657
9 uio_oe[7] *348:44 0
10 uio_oe[7] *580:10 0
11 uio_oe[7] *610:48 7.30101e-05
12 uio_oe[7] *624:88 0.000233886
13 *32:12 *3073:A1 0
14 *32:12 *3370:A 3.33452e-05
15 *32:12 *271:12 0
16 *32:12 *429:20 4.77425e-05
17 *32:12 *520:14 0.000432769
18 *32:12 *649:10 0
19 uio_oe[6] uio_oe[7] 0
*RES
1 *3602:X *32:12 48.8992 
2 *32:12 uio_oe[7] 11.742 
*END

*D_NET *33 0.00962473
*CONN
*P uio_out[0] O
*I *3603:X O *D sg13g2_buf_1
*CAP
1 uio_out[0] 0.00120635
2 *3603:X 0.000524069
3 *33:14 0.00187857
4 *33:8 0.00119629
5 uio_out[0] uio_out[1] 0
6 uio_out[0] uo_out[7] 0
7 uio_out[0] *3154:A 0
8 uio_out[0] *3524:A 0
9 uio_out[0] *366:46 0
10 uio_out[0] *380:12 0
11 uio_out[0] *513:24 0
12 uio_out[0] *515:14 0
13 uio_out[0] *572:14 0.0010323
14 uio_out[0] *608:28 0
15 uio_out[0] *608:34 0
16 uio_out[0] *608:58 0
17 *33:8 uo_out[4] 0
18 *33:8 *343:89 0.000447134
19 *33:8 *570:14 0.00170518
20 *33:8 *614:76 0.000231428
21 *33:14 *245:43 0.000701843
22 *33:14 *582:18 0
23 *33:14 *582:112 0
24 *33:14 *608:16 0
25 *33:14 *616:28 0.000701556
*RES
1 *3603:X *33:8 48.0134 
2 *33:8 *33:14 47.6735 
3 *33:14 uio_out[0] 10.7223 
*END

*D_NET *34 0.0119838
*CONN
*P uio_out[1] O
*I *3604:X O *D sg13g2_buf_1
*CAP
1 uio_out[1] 0.00220529
2 *3604:X 0.000336143
3 *34:16 0.00371736
4 *34:12 0.00184821
5 uio_out[1] uio_out[2] 0
6 uio_out[1] *3306:CLK 7.48842e-05
7 uio_out[1] *342:94 0
8 uio_out[1] *380:12 0
9 uio_out[1] *380:18 0
10 uio_out[1] *380:66 0
11 uio_out[1] *424:20 0
12 uio_out[1] *440:18 0
13 uio_out[1] *513:24 0
14 uio_out[1] *514:42 0
15 uio_out[1] *572:14 0
16 uio_out[1] *606:28 0
17 uio_out[1] *614:41 0
18 uio_out[1] *618:49 0
19 uio_out[1] *696:10 0
20 *34:12 *3145:S 0
21 *34:12 *281:20 0.00103306
22 *34:12 *300:119 0
23 *34:12 *511:30 0.000658906
24 *34:12 *566:30 2.21754e-05
25 *34:16 *254:22 0
26 *34:16 *279:12 0
27 *34:16 *436:30 0.00145372
28 *34:16 *580:32 0
29 *34:16 *583:125 0
30 *34:16 *586:12 0
31 *34:16 *614:14 0.000634011
32 uio_out[0] uio_out[1] 0
33 *12:13 *34:16 0
34 *13:15 uio_out[1] 0
*RES
1 *3604:X *34:12 45.4693 
2 *34:12 *34:16 36.7581 
3 *34:16 uio_out[1] 37.6748 
*END

*D_NET *35 0.0130077
*CONN
*P uio_out[2] O
*I *3605:X O *D sg13g2_buf_1
*CAP
1 uio_out[2] 0.00205867
2 *3605:X 0.000402235
3 *35:18 0.00280448
4 *35:12 0.00114804
5 uio_out[2] *170:10 0
6 uio_out[2] *171:8 0
7 uio_out[2] *238:10 0
8 uio_out[2] *294:10 0
9 uio_out[2] *294:20 0
10 uio_out[2] *380:66 0
11 uio_out[2] *440:18 0.000596277
12 uio_out[2] *587:24 0.000339977
13 uio_out[2] *587:39 0.000543868
14 uio_out[2] *615:85 0
15 uio_out[2] *679:46 0
16 *35:12 *245:62 0.000180919
17 *35:12 *339:16 0
18 *35:12 *423:36 0.000126859
19 *35:12 *439:18 0.000545874
20 *35:12 *514:10 0.00059741
21 *35:12 *612:12 0
22 *35:18 *36:22 0.00116394
23 *35:18 *240:22 0.00122894
24 *35:18 *242:22 0
25 uio_out[1] uio_out[2] 0
26 *13:15 uio_out[2] 0.00127019
*RES
1 *3605:X *35:12 45.2221 
2 *35:12 *35:18 49.1876 
3 *35:18 uio_out[2] 20.2704 
*END

*D_NET *36 0.0114304
*CONN
*P uio_out[3] O
*I *3606:X O *D sg13g2_buf_1
*CAP
1 uio_out[3] 0.00213835
2 *3606:X 0.00046073
3 *36:22 0.00319027
4 *36:12 0.00151265
5 uio_out[3] *3069:S 0
6 uio_out[3] *3305:RESET_B 0
7 uio_out[3] *3333:D 0
8 uio_out[3] *170:10 0
9 uio_out[3] *228:8 0
10 uio_out[3] *300:77 0
11 uio_out[3] *379:20 0
12 uio_out[3] *424:39 0
13 uio_out[3] *425:22 0.000499681
14 uio_out[3] *515:22 0
15 uio_out[3] *582:127 0
16 uio_out[3] *582:135 0.000499927
17 uio_out[3] *587:54 0
18 uio_out[3] *615:33 0
19 *36:12 *3067:A0 0.000333709
20 *36:12 *299:28 0
21 *36:12 *566:20 0.000280912
22 *36:12 *590:36 0.000240377
23 *36:12 *610:82 0.000322001
24 *36:12 *610:90 8.00842e-05
25 *36:22 *240:22 0
26 *36:22 *242:22 0
27 *36:22 *385:64 0.000707772
28 *35:18 *36:22 0.00116394
*RES
1 *3606:X *36:12 45.3766 
2 *36:12 *36:22 31.9377 
3 *36:22 uio_out[3] 38.2413 
*END

*D_NET *37 0.0133713
*CONN
*P uio_out[4] O
*I *3607:X O *D sg13g2_buf_1
*CAP
1 uio_out[4] 0.00140165
2 *3607:X 0.000477767
3 *37:16 0.00290648
4 *37:12 0.00198259
5 uio_out[4] *3129:A1 0
6 uio_out[4] *66:22 0.00123331
7 uio_out[4] *366:8 0
8 uio_out[4] *379:8 0
9 uio_out[4] *379:20 0
10 uio_out[4] *424:39 0
11 uio_out[4] *425:14 0
12 uio_out[4] *557:8 0
13 uio_out[4] *573:20 0.000907391
14 uio_out[4] *579:44 0.00155026
15 *37:12 *339:16 0.00121945
16 *37:12 *568:16 0.00118462
17 *37:12 *586:35 0
18 *37:12 *590:40 0.000230741
19 *37:16 *615:98 0
20 *37:16 *675:14 0.000277033
21 *12:13 *37:16 0
22 *25:34 uio_out[4] 0
*RES
1 *3607:X *37:12 47.4469 
2 *37:12 *37:16 34.3788 
3 *37:16 uio_out[4] 37.0568 
*END

*D_NET *38 0.0172479
*CONN
*P uio_out[5] O
*I *3608:X O *D sg13g2_buf_1
*CAP
1 uio_out[5] 0.00224524
2 *3608:X 0.000525351
3 *38:14 0.00430847
4 *38:10 0.00258858
5 uio_out[5] uio_out[6] 0
6 uio_out[5] *217:12 0
7 uio_out[5] *300:69 0.000124824
8 uio_out[5] *343:28 0.00128445
9 uio_out[5] *344:41 0
10 uio_out[5] *344:47 0
11 uio_out[5] *344:55 0
12 uio_out[5] *496:23 0
13 uio_out[5] *558:8 0.00022762
14 uio_out[5] *587:88 0.000698766
15 uio_out[5] *590:16 0
16 uio_out[5] *609:40 0
17 uio_out[5] *609:56 0
18 uio_out[5] *616:45 0
19 *38:10 *3131:A1 0.000340467
20 *38:10 *3132:A0 0.0002629
21 *38:10 *3611:A 4.77425e-05
22 *38:10 *369:19 0.000105753
23 *38:10 *582:45 0
24 *38:10 *583:127 0
25 *38:14 *3628:ext_trim[23] 0.000108921
26 *38:14 *47:16 0
27 *38:14 *270:20 0.00144301
28 *38:14 *279:12 0.00153167
29 *38:14 *422:38 0
30 *38:14 *422:62 0
31 *38:14 *443:40 0.00140413
*RES
1 *3608:X *38:10 45.1191 
2 *38:10 *38:14 43.0308 
3 *38:14 uio_out[5] 40.394 
*END

*D_NET *39 0.0132231
*CONN
*P uio_out[6] O
*I *3609:X O *D sg13g2_buf_1
*CAP
1 uio_out[6] 0.000846403
2 *3609:X 0.000159769
3 *39:48 0.00160553
4 *39:34 0.00144153
5 *39:22 0.00197715
6 *39:18 0.00163406
7 *39:8 0.000499087
8 uio_out[6] *365:22 0.000280554
9 uio_out[6] *590:16 0
10 uio_out[6] *595:83 0.00103241
11 uio_out[6] *600:87 0
12 *39:8 uo_out[0] 0
13 *39:8 *512:22 0
14 *39:8 *585:38 0.000180812
15 *39:8 *611:37 0.000158441
16 *39:8 *611:41 0.000341534
17 *39:18 *3336:CLK 0
18 *39:22 uo_out[3] 0
19 *39:22 *366:46 0
20 *39:22 *581:22 0
21 *39:34 *3306:CLK 0.000176248
22 *39:34 *3321:D 0.000264531
23 *39:34 *294:20 0
24 *39:34 *380:66 0.000370478
25 *39:34 *615:22 0.000242355
26 *39:34 *615:33 3.24568e-05
27 *39:34 *618:10 0.000112211
28 *39:34 *618:49 3.22309e-05
29 *39:34 *618:55 0
30 *39:48 *66:22 0.000288609
31 *39:48 *366:8 0.000179096
32 *39:48 *579:38 0.000304688
33 *39:48 *582:135 0.000274182
34 *39:48 *615:33 0
35 *39:48 *618:55 0.000369406
36 uio_out[5] uio_out[6] 0
37 *26:26 uio_out[6] 0.000178388
38 *29:24 *39:18 0.000240933
39 *29:24 *39:34 0
40 *29:24 *39:48 0
*RES
1 *3609:X *39:8 42.575 
2 *39:8 *39:18 43.1827 
3 *39:18 *39:22 30.9537 
4 *39:22 *39:34 47.3954 
5 *39:34 *39:48 47.9928 
6 *39:48 uio_out[6] 29.0022 
*END

*D_NET *40 0.0134029
*CONN
*P uio_out[7] O
*I *3610:X O *D sg13g2_buf_1
*CAP
1 uio_out[7] 0.000722244
2 *3610:X 6.88242e-05
3 *40:14 0.00277081
4 *40:10 0.00211739
5 uio_out[7] *216:8 7.40536e-05
6 uio_out[7] *517:24 0.00022762
7 uio_out[7] *588:46 0.000913099
8 uio_out[7] *616:58 0.00144265
9 uio_out[7] *618:63 0.000286337
10 *40:10 *280:14 0.000124824
11 *40:10 *294:26 0.000125139
12 *40:10 *355:14 4.75151e-05
13 *40:14 *300:98 0.00139579
14 *40:14 *670:16 0.00308658
*RES
1 *3610:X *40:10 40.9167 
2 *40:10 *40:14 44.7612 
3 *40:14 uio_out[7] 29.7644 
*END

*D_NET *41 0.00723526
*CONN
*P uo_out[0] O
*I *3611:X O *D sg13g2_buf_1
*CAP
1 uo_out[0] 0.00249515
2 *3611:X 0.000269943
3 *41:8 0.00276509
4 uo_out[0] uo_out[1] 0
5 uo_out[0] *3142:A1 0
6 uo_out[0] *3144:A1 0
7 uo_out[0] *44:12 0.000664037
8 uo_out[0] *382:27 0
9 uo_out[0] *383:12 0
10 uo_out[0] *512:10 0
11 uo_out[0] *585:38 0
12 uo_out[0] *585:48 0
13 uo_out[0] *611:41 0
14 uo_out[0] *613:16 0.00050329
15 uo_out[0] *613:42 0.000323029
16 uo_out[0] *613:55 0.000214719
17 *41:8 *3324:D 0
18 *41:8 *582:55 0
19 *10:15 uo_out[0] 0
20 *27:10 uo_out[0] 0
21 *39:8 uo_out[0] 0
*RES
1 *3611:X *41:8 41.8084 
2 *41:8 uo_out[0] 25.5852 
*END

*D_NET *42 0.0126167
*CONN
*P uo_out[1] O
*I *3612:X O *D sg13g2_buf_1
*CAP
1 uo_out[1] 0.00244841
2 *3612:X 6.86028e-05
3 *42:8 0.00251701
4 uo_out[1] uo_out[2] 0
5 uo_out[1] *281:20 0.00121893
6 uo_out[1] *511:30 0
7 uo_out[1] *512:10 0.00252364
8 uo_out[1] *512:22 0.000605607
9 uo_out[1] *513:10 0
10 uo_out[1] *551:10 0.00141412
11 uo_out[1] *611:41 0
12 uo_out[1] *684:12 0.000506742
13 uo_out[0] uo_out[1] 0
14 *27:10 uo_out[1] 0.000601242
15 *29:8 uo_out[1] 0.000712431
*RES
1 *3612:X *42:8 40.5356 
2 *42:8 uo_out[1] 30.7764 
*END

*D_NET *43 0.0117657
*CONN
*P uo_out[2] O
*I *3613:X O *D sg13g2_buf_1
*CAP
1 uo_out[2] 0.00251944
2 *3613:X 0.000713337
3 *43:8 0.00323278
4 uo_out[2] *355:14 0
5 uo_out[2] *380:38 7.30101e-05
6 uo_out[2] *513:10 0
7 uo_out[2] *546:8 0.00199265
8 uo_out[2] *557:18 0
9 uo_out[2] *581:22 0.00198577
10 uo_out[2] *583:127 0
11 uo_out[2] *584:45 0
12 uo_out[2] *611:31 0.000605341
13 *43:8 *2982:A1 0
14 *43:8 *3297:RESET_B 0.0004022
15 *43:8 *3339:D 0
16 *43:8 *3560:A 0
17 *43:8 *339:46 0
18 *43:8 *370:12 0
19 *43:8 *384:26 0
20 *43:8 *613:61 0.000241167
21 uo_out[1] uo_out[2] 0
*RES
1 *3613:X *43:8 46.592 
2 *43:8 uo_out[2] 27.5628 
*END

*D_NET *44 0.00984838
*CONN
*P uo_out[3] O
*I *3614:X O *D sg13g2_buf_1
*CAP
1 uo_out[3] 0.00136028
2 *3614:X 0.000241718
3 *44:12 0.00411894
4 *44:8 0.00300038
5 uo_out[3] uo_out[4] 0
6 uo_out[3] *3528:A 0
7 uo_out[3] *46:14 0
8 uo_out[3] *539:8 0.000283647
9 uo_out[3] *560:30 0
10 uo_out[3] *581:22 0
11 uo_out[3] *584:20 0
12 uo_out[3] *584:45 0
13 uo_out[3] *584:51 0
14 uo_out[3] *611:64 0.000179389
15 *44:8 *3325:RESET_B 0
16 *44:8 *3339:RESET_B 0
17 *44:8 *3339:CLK 0
18 *44:8 *3614:A 0
19 *44:8 *339:46 0
20 *44:12 *328:43 0
21 *44:12 *339:46 0
22 *44:12 *339:50 0
23 *44:12 *382:12 0
24 *44:12 *384:26 0
25 *44:12 *613:55 0
26 *44:12 *613:74 0
27 uo_out[0] *44:12 0.000664037
28 *26:10 uo_out[3] 0
29 *39:22 uo_out[3] 0
*RES
1 *3614:X *44:8 42.266 
2 *44:8 *44:12 44.823 
3 *44:12 uo_out[3] 33.184 
*END

*D_NET *45 0.0104402
*CONN
*P uo_out[4] O
*I *3615:X O *D sg13g2_buf_1
*CAP
1 uo_out[4] 0.00206213
2 *3615:X 2.61089e-05
3 *45:8 0.00208823
4 uo_out[4] *3127:A0 0.00049543
5 uo_out[4] *3318:D 0
6 uo_out[4] *3528:A 0
7 uo_out[4] *215:12 0.00038822
8 uo_out[4] *278:10 0.000336795
9 uo_out[4] *299:30 0.000494191
10 uo_out[4] *299:39 0.000586536
11 uo_out[4] *343:89 0
12 uo_out[4] *512:30 0
13 uo_out[4] *567:12 0.00396258
14 uo_out[4] *570:14 0
15 uo_out[4] *584:57 0
16 uo_out[4] *614:76 0
17 uo_out[4] *622:10 0
18 uo_out[3] uo_out[4] 0
19 *7:25 uo_out[4] 0
20 *33:8 uo_out[4] 0
*RES
1 *3615:X *45:8 40.3193 
2 *45:8 uo_out[4] 25.8324 
*END

*D_NET *46 0.00690526
*CONN
*P uo_out[5] O
*I *3616:X O *D sg13g2_buf_1
*CAP
1 uo_out[5] 0.000970083
2 *3616:X 0.000177486
3 *46:14 0.00194977
4 *46:8 0.00115717
5 uo_out[5] uo_out[6] 0
6 uo_out[5] *3304:RESET_B 7.30101e-05
7 uo_out[5] *3304:CLK 0.000441641
8 uo_out[5] *568:16 0.000282459
9 uo_out[5] *606:20 0
10 uo_out[5] *612:20 0
11 *46:8 *512:10 0.000926078
12 *46:8 *585:38 0.000927562
13 uo_out[3] *46:14 0
14 *7:25 uo_out[5] 0
*RES
1 *3616:X *46:8 44.3054 
2 *46:8 *46:14 49.1876 
3 *46:14 uo_out[5] 8.034 
*END

*D_NET *47 0.0113363
*CONN
*P uo_out[6] O
*I *3617:X O *D sg13g2_buf_1
*CAP
1 uo_out[6] 0.00249656
2 *3617:X 0.000373455
3 *47:16 0.00319705
4 *47:10 0.00107395
5 uo_out[6] uo_out[7] 0
6 uo_out[6] *3292:CLK 2.17531e-05
7 uo_out[6] *278:18 0.000176083
8 uo_out[6] *511:36 0.000331737
9 uo_out[6] *566:12 0
10 uo_out[6] *590:36 0
11 uo_out[6] *612:39 0
12 uo_out[6] *614:14 0.000124547
13 uo_out[6] *614:18 0.00128071
14 *47:10 *294:26 0.000869875
15 *47:10 *570:14 0.000175693
16 *47:10 *586:61 0.000447792
17 *47:10 *595:12 0
18 *47:10 *663:10 7.51285e-05
19 *47:16 *328:32 0
20 *47:16 *443:40 0.000691925
21 *47:16 *641:34 0
22 uo_out[5] uo_out[6] 0
23 *38:14 *47:16 0
*RES
1 *3617:X *47:10 45.2427 
2 *47:10 *47:16 46.3757 
3 *47:16 uo_out[6] 21.1047 
*END

*D_NET *48 0.00798779
*CONN
*P uo_out[7] O
*I *3618:X O *D sg13g2_buf_1
*CAP
1 uo_out[7] 0.00197423
2 *3618:X 0.00109844
3 *48:18 0.00307268
4 uo_out[7] *3340:D 0
5 uo_out[7] *156:8 0.00034017
6 uo_out[7] *227:8 0.000799018
7 uo_out[7] *515:14 0
8 uo_out[7] *566:12 0
9 *48:18 *2984:A1 0
10 *48:18 *2984:S 0.000175693
11 *48:18 *3131:A1 0
12 *48:18 *3296:D 0
13 *48:18 *423:36 0.000336687
14 *48:18 *579:50 0.000143351
15 *48:18 *582:22 4.75151e-05
16 *48:18 *612:97 0
17 *48:18 *693:10 0
18 uio_out[0] uo_out[7] 0
19 uo_out[6] uo_out[7] 0
20 *13:21 uo_out[7] 0
*RES
1 *3618:X *48:18 30.1146 
2 *48:18 uo_out[7] 37.6645 
*END

*D_NET *51 0.0216893
*CONN
*I *3356:D I *D sg13g2_dfrbpq_1
*I *3355:D I *D sg13g2_dfrbpq_1
*I *2969:A I *D sg13g2_nand2_1
*I *2929:Y O *D sg13g2_inv_1
*CAP
1 *3356:D 0
2 *3355:D 0
3 *2969:A 0
4 *2929:Y 7.60098e-05
5 *51:54 0.000755826
6 *51:35 3.33098e-05
7 *51:29 0.00356631
8 *51:22 0.00121234
9 *51:18 0.00225269
10 *51:12 0.00510033
11 *51:8 0.00135881
12 *51:8 *3166:B 0.0001118
13 *51:8 *606:48 0
14 *51:12 *2929:A 0
15 *51:12 *64:16 0
16 *51:12 *239:24 0.000547875
17 *51:12 *298:77 0
18 *51:12 *496:17 0
19 *51:12 *583:87 0
20 *51:12 *616:72 0
21 *51:12 *618:82 0
22 *51:12 *695:16 0
23 *51:18 *3084:A1 7.51285e-05
24 *51:18 *496:23 0
25 *51:18 *516:14 0
26 *51:22 *3235:D 0.00020871
27 *51:22 *246:12 0.00206531
28 *51:22 *587:18 0.00072574
29 *51:22 *587:54 0.00037158
30 *51:22 *696:10 0.000176369
31 *51:29 *246:20 0.00257062
32 *51:29 *293:28 0
33 *51:29 *616:125 0
34 *51:29 *624:50 0
35 *51:35 *431:42 7.34081e-05
36 *51:35 *700:14 0
37 *51:54 *248:16 0
38 *51:54 *277:10 0
39 *51:54 *277:20 0
40 *51:54 *297:14 0
41 *51:54 *493:24 0.000176106
42 *51:54 *522:63 0
43 *51:54 *624:50 0
44 *51:54 *625:58 0.000230981
45 *12:13 *51:18 0
46 *12:13 *51:29 0
*RES
1 *2929:Y *51:8 40.7519 
2 *51:8 *51:12 31.4742 
3 *51:12 *51:18 27.0831 
4 *51:18 *51:22 33.7299 
5 *51:22 *2969:A 20 
6 *51:12 *51:29 30.8848 
7 *51:29 *51:35 40.3502 
8 *51:35 *3355:D 20 
9 *51:29 *51:54 47.9001 
10 *51:54 *3356:D 20 
*END

*D_NET *52 0.011176
*CONN
*I *3553:A I *D sg13g2_dlygate4sd3_1
*I *2968:X O *D sg13g2_and2_1
*CAP
1 *3553:A 0
2 *2968:X 0.000681264
3 *52:24 0.00095635
4 *52:18 0.00162067
5 *52:12 0.00134559
6 *52:12 *3174:CLK 0.000209499
7 *52:12 *274:12 0
8 *52:12 *296:21 0
9 *52:12 *317:10 0.00079272
10 *52:12 *342:35 0
11 *52:12 *347:18 0
12 *52:12 *657:16 2.14736e-05
13 *52:18 *3174:CLK 0
14 *52:18 *342:35 0.000274297
15 *52:18 *508:6 0
16 *52:18 *657:10 0
17 *52:24 *3352:CLK 0
18 *52:24 *92:18 0.00259071
19 *52:24 *243:61 0
20 *52:24 *245:24 0.000182555
21 *52:24 *431:42 0.00138501
22 *52:24 *487:16 0
23 *52:24 *700:14 0
24 *31:20 *52:18 0.00111586
*RES
1 *2968:X *52:12 46.7053 
2 *52:12 *52:18 47.4572 
3 *52:18 *52:24 33.2458 
4 *52:24 *3553:A 20 
*END

*D_NET *53 0.00609958
*CONN
*I *3353:D I *D sg13g2_dfrbpq_1
*I *2974:Y O *D sg13g2_o21ai_1
*CAP
1 *3353:D 0.000667614
2 *2974:Y 0.00063189
3 *53:8 0.0012995
4 *3353:D *54:34 0
5 *3353:D *277:20 0
6 *3353:D *564:8 0
7 *3353:D *625:77 0.000519683
8 *3353:D *625:83 0.00069912
9 *3353:D *625:91 0.000280964
10 *3353:D *690:20 0
11 *53:8 *2974:B1 0.00069371
12 *53:8 *3176:RESET_B 7.99631e-05
13 *53:8 *243:51 0.000194071
14 *53:8 *243:61 0.000242328
15 *53:8 *244:10 0
16 *53:8 *342:12 0.000339353
17 *53:8 *625:91 4.77425e-05
18 *53:8 *700:24 0.000403641
19 *18:9 *3353:D 0
*RES
1 *2974:Y *53:8 47.4572 
2 *53:8 *3353:D 47.3439 
*END

*D_NET *54 0.025565
*CONN
*I *3352:D I *D sg13g2_dfrbpq_1
*I *2975:Y O *D sg13g2_nand2_1
*CAP
1 *3352:D 0
2 *2975:Y 3.478e-05
3 *54:34 0.000390972
4 *54:24 0.0015259
5 *54:16 0.00365957
6 *54:14 0.00326275
7 *54:8 0.000772891
8 *54:8 *704:58 7.44077e-05
9 *54:14 *522:14 0
10 *54:16 *247:44 0.00427146
11 *54:16 *300:26 0
12 *54:16 *356:43 0
13 *54:16 *617:14 0.00967703
14 *54:24 *246:43 0
15 *54:24 *592:54 0
16 *54:24 *592:56 0
17 *54:24 *592:66 0
18 *54:24 *617:22 0.00104317
19 *54:34 *524:10 0.000370111
20 *54:34 *533:40 0.00030569
21 *3353:D *54:34 0
22 *15:29 *54:14 0.000176296
23 *20:21 *54:14 0
*RES
1 *2975:Y *54:8 40.3502 
2 *54:8 *54:14 45.9431 
3 *54:14 *54:16 44.599 
4 *54:16 *54:24 30.9695 
5 *54:24 *54:34 43.8625 
6 *54:34 *3352:D 20 
*END

*D_NET *55 0.000492702
*CONN
*I *3348:D I *D sg13g2_dfrbpq_1
*I *2976:X O *D sg13g2_mux2_1
*CAP
1 *3348:D 0.000246351
2 *2976:X 0.000246351
3 *3348:D *3348:RESET_B 0
4 *3348:D *56:12 0
*RES
1 *2976:X *3348:D 42.4617 
*END

*D_NET *56 0.00229689
*CONN
*I *3349:D I *D sg13g2_dfrbpq_1
*I *2977:X O *D sg13g2_mux2_1
*CAP
1 *3349:D 0
2 *2977:X 0.000922717
3 *56:12 0.000922717
4 *56:12 *2977:A1 0
5 *56:12 *2977:S 0
6 *56:12 *3124:A0 0
7 *56:12 *3124:S 0
8 *56:12 *3218:CLK 0.000209499
9 *56:12 *3289:RESET_B 0
10 *56:12 *3315:RESET_B 0
11 *56:12 *212:10 0
12 *56:12 *299:77 0.000241955
13 *56:12 *511:10 0
14 *56:12 *633:30 0
15 *3348:D *56:12 0
*RES
1 *2977:X *56:12 49.2082 
2 *56:12 *3349:D 40 
*END

*D_NET *57 0.00184454
*CONN
*I *3350:D I *D sg13g2_dfrbpq_1
*I *2978:X O *D sg13g2_mux2_1
*CAP
1 *3350:D 0.000229569
2 *2978:X 0.000244809
3 *57:8 0.000474379
4 *3350:D *362:10 0
5 *3350:D *583:146 0
6 *57:8 *327:28 0
7 *57:8 *660:8 0.000341204
8 *57:8 *682:10 0.000554577
*RES
1 *2978:X *57:8 43.3166 
2 *57:8 *3350:D 42.0497 
*END

*D_NET *58 0.000943607
*CONN
*I *3351:D I *D sg13g2_dfrbpq_1
*I *2979:X O *D sg13g2_mux2_1
*CAP
1 *3351:D 0.000381516
2 *2979:X 0.000381516
3 *3351:D *2979:A1 0.000180575
4 *3351:D *362:18 0
*RES
1 *2979:X *3351:D 44.1921 
*END

*D_NET *59 0.00761874
*CONN
*I *3344:D I *D sg13g2_dfrbpq_1
*I *2980:X O *D sg13g2_mux2_1
*CAP
1 *3344:D 0
2 *2980:X 0.000116924
3 *59:14 0.00100846
4 *59:8 0.00112538
5 *59:14 *3158:A 0.00113107
6 *59:14 *300:119 0.00108532
7 *59:14 *511:30 0
8 *59:14 *512:30 0
9 *59:14 *513:10 0.00266749
10 *59:14 *584:14 0.000306734
11 *25:26 *59:14 0
12 *26:18 *59:14 0.000177367
*RES
1 *2980:X *59:8 40.9682 
2 *59:8 *59:14 36.0268 
3 *59:14 *3344:D 20 
*END

*D_NET *60 0.000275677
*CONN
*I *3345:D I *D sg13g2_dfrbpq_1
*I *2981:X O *D sg13g2_mux2_1
*CAP
1 *3345:D 9.77827e-05
2 *2981:X 9.77827e-05
3 *3345:D *2981:A1 0
4 *3345:D *577:10 8.01116e-05
*RES
1 *2981:X *3345:D 41.133 
*END

*D_NET *61 0.000591164
*CONN
*I *3346:D I *D sg13g2_dfrbpq_1
*I *2982:X O *D sg13g2_mux2_1
*CAP
1 *3346:D 0.000295582
2 *2982:X 0.000295582
3 *3346:D *354:18 0
*RES
1 *2982:X *3346:D 42.9561 
*END

*D_NET *62 0.000563834
*CONN
*I *3347:D I *D sg13g2_dfrbpq_1
*I *2983:X O *D sg13g2_mux2_1
*CAP
1 *3347:D 0.000281917
2 *2983:X 0.000281917
3 *3347:D *2983:A0 0
4 *3347:D *3291:RESET_B 0
5 *3347:D *3298:RESET_B 0
6 *3347:D *3347:RESET_B 0
*RES
1 *2983:X *3347:D 42.7089 
*END

*D_NET *63 0.00415596
*CONN
*I *3340:D I *D sg13g2_dfrbpq_1
*I *2984:X O *D sg13g2_mux2_1
*CAP
1 *3340:D 0.00088813
2 *2984:X 0.000195543
3 *63:8 0.00108367
4 *3340:D *3496:A 0
5 *3340:D *559:22 0.000806311
6 *3340:D *586:102 0.000125015
7 *63:8 *3309:CLK 0
8 *63:8 *3495:A 4.77425e-05
9 *63:8 *317:16 4.77425e-05
10 uo_out[7] *3340:D 0
11 *13:21 *3340:D 0.000961802
*RES
1 *2984:X *63:8 41.6171 
2 *63:8 *3340:D 49.4966 
*END

*D_NET *64 0.00472579
*CONN
*I *3341:D I *D sg13g2_dfrbpq_1
*I *2985:X O *D sg13g2_mux2_1
*CAP
1 *3341:D 8.67435e-05
2 *2985:X 0.000446779
3 *64:16 0.000966722
4 *64:8 0.00132676
5 *3341:D *3477:A 0
6 *64:8 *559:16 0
7 *64:8 *595:83 0.000126851
8 *64:16 *300:69 0
9 *64:16 *583:87 0.000887423
10 *64:16 *616:12 0.000272949
11 *64:16 *616:58 0.000144768
12 *64:16 *616:105 0
13 *64:16 *618:63 0
14 *64:16 *677:12 0.000466796
15 *51:12 *64:16 0
*RES
1 *2985:X *64:8 43.5638 
2 *64:8 *64:16 49.5069 
3 *64:16 *3341:D 40.7519 
*END

*D_NET *65 0.00732647
*CONN
*I *3342:D I *D sg13g2_dfrbpq_1
*I *2986:X O *D sg13g2_mux2_1
*CAP
1 *3342:D 0
2 *2986:X 0.000268373
3 *65:34 0.001268
4 *65:28 0.0021409
5 *65:12 0.00114127
6 *65:12 *2986:A1 0
7 *65:12 *3249:D 0
8 *65:12 *3341:CLK 0
9 *65:12 *239:24 0
10 *65:12 *246:16 0
11 *65:12 *649:10 0
12 *65:28 *3072:A0 0
13 *65:28 *3236:D 0.000176726
14 *65:28 *3237:D 0.000369042
15 *65:28 *3249:D 0
16 *65:28 *3250:D 0
17 *65:28 *3341:CLK 0.0003528
18 *65:28 *239:20 0
19 *65:28 *428:32 0.000208312
20 *65:28 *649:10 0
21 *65:34 *297:46 7.98582e-05
22 *65:34 *345:42 0
23 *65:34 *349:8 0.000210631
24 *65:34 *349:14 0.00103033
25 *65:34 *517:10 0
26 *65:34 *606:48 8.02267e-05
27 *65:34 *609:8 0
28 *65:34 *610:72 0
29 uio_oe[4] *65:34 0
*RES
1 *2986:X *65:12 42.349 
2 *65:12 *65:28 49.1773 
3 *65:28 *65:34 31.7626 
4 *65:34 *3342:D 20 
*END

*D_NET *66 0.0125898
*CONN
*I *3343:D I *D sg13g2_dfrbpq_1
*I *2987:X O *D sg13g2_mux2_1
*CAP
1 *3343:D 0
2 *2987:X 0.000659339
3 *66:22 0.00264623
4 *66:8 0.00330557
5 *66:8 *2987:A0 0.000562296
6 *66:8 *3248:D 0.000626592
7 *66:8 *427:32 0.00014454
8 *66:8 *583:101 0
9 *66:8 *587:18 0
10 *66:8 *587:54 0
11 *66:22 *3319:RESET_B 0.0004338
12 *66:22 *80:10 1.54285e-05
13 *66:22 *344:47 0.000176599
14 *66:22 *345:87 0
15 *66:22 *349:22 1.54008e-05
16 *66:22 *366:8 0
17 *66:22 *425:14 0
18 *66:22 *495:6 0
19 *66:22 *495:19 0
20 *66:22 *496:23 0
21 *66:22 *516:22 7.98567e-05
22 *66:22 *560:10 0.000401872
23 *66:22 *579:24 0
24 *66:22 *579:38 0.000402508
25 *66:22 *582:135 0
26 *66:22 *587:76 0
27 *66:22 *609:20 0
28 *66:22 *609:84 0
29 *66:22 *615:63 0
30 *66:22 *618:55 0
31 uio_oe[4] *66:22 0.00159783
32 uio_out[4] *66:22 0.00123331
33 *39:48 *66:22 0.000288609
*RES
1 *2987:X *66:8 47.0246 
2 *66:8 *66:22 47.81 
3 *66:22 *3343:D 20 
*END

*D_NET *67 0.0051048
*CONN
*I *3354:D I *D sg13g2_dfrbpq_1
*I *2972:Y O *D sg13g2_o21ai_1
*CAP
1 *3354:D 0.000676846
2 *2972:Y 0.000827273
3 *67:12 0.00150412
4 *3354:D *74:20 0
5 *3354:D *292:10 0.000127969
6 *3354:D *297:26 0
7 *3354:D *534:12 0
8 *67:12 *271:12 8.00842e-05
9 *67:12 *350:12 0.000653652
10 *67:12 *493:16 0.000531249
11 *67:12 *523:20 0.000655863
12 *67:12 *564:14 0
13 *67:12 *689:14 4.77425e-05
14 *67:12 *697:28 0
*RES
1 *2972:Y *67:12 49.3627 
2 *67:12 *3354:D 45.8555 
*END

*D_NET *68 0.0131541
*CONN
*I *3370:A I *D sg13g2_buf_16
*I *3440:A I *D sg13g2_buf_16
*I *2964:Y O *D sg13g2_xnor2_1
*CAP
1 *3370:A 8.53011e-05
2 *3440:A 0.00012395
3 *2964:Y 0.000160069
4 *68:64 0.000290707
5 *68:50 0.00201335
6 *68:39 0.00256224
7 *68:23 0.00291539
8 *68:19 0.00362884
9 *68:6 0.00134096
10 *3370:A *271:12 0
11 *68:6 *3168:B 0
12 *68:6 *350:20 0
13 *68:19 *3562:A 0
14 *68:19 *71:10 0
15 *68:19 *74:20 0
16 *68:19 *242:18 0
17 *68:19 *275:10 0
18 *68:19 *348:36 0
19 *68:19 *350:20 0
20 *68:19 *520:20 0
21 *68:23 *246:43 0
22 *68:23 *592:78 0
23 *68:23 *692:16 0
24 *68:39 *431:56 0
25 *68:39 *432:16 0
26 *68:39 *583:60 0
27 *68:39 *592:66 0
28 *68:39 *691:24 0
29 *68:39 *697:46 0
30 *68:50 *3061:A1 0
31 *68:50 *3182:D 0
32 *68:50 *3369:RESET_B 0
33 *68:50 *3369:D 0
34 *68:50 *3487:A 0
35 *68:50 *149:14 0
36 *68:50 *416:70 0
37 *68:50 *417:40 0
38 *68:50 *626:53 0
39 *68:50 *691:24 0
40 *68:64 *242:18 0
41 *68:64 *520:20 0
42 *8:9 *3440:A 0
43 *32:12 *3370:A 3.33452e-05
*RES
1 *2964:Y *68:6 21.2927 
2 *68:6 *68:19 30.7171 
3 *68:19 *68:23 38.2722 
4 *68:23 *68:39 46.2882 
5 *68:39 *68:50 15.9341 
6 *68:50 *3440:A 21.3184 
7 *68:19 *68:64 2.3278 
8 *68:64 *3370:A 41.048 
*END

*D_NET *69 0.00106682
*CONN
*I *3371:A I *D sg13g2_buf_16
*I *3440:X O *D sg13g2_buf_16
*CAP
1 *3371:A 0.000153052
2 *3440:X 9.62204e-05
3 *69:15 0.000437191
4 *69:6 0.00038036
5 *69:6 *3182:D 0
6 *69:15 *348:10 0
*RES
1 *3440:X *69:6 20.8601 
2 *69:6 *69:15 2.95095 
3 *69:15 *3371:A 21.1845 
*END

*D_NET *70 0.00246686
*CONN
*I *3171:CLK I *D sg13g2_dfrbpq_1
*I *3147:Y O *D sg13g2_xnor2_1
*CAP
1 *3171:CLK 0.000107305
2 *3147:Y 0.000123225
3 *70:16 0.000587523
4 *70:8 0.000603443
5 *3171:CLK *697:28 0.000143908
6 *70:16 *348:55 0.000227899
7 *70:16 *592:78 0.00067356
*RES
1 *3147:Y *70:8 40.8446 
2 *70:8 *70:16 45.5208 
3 *70:16 *3171:CLK 40.9682 
*END

*D_NET *71 0.00906975
*CONN
*I *3172:CLK I *D sg13g2_dfrbpq_1
*I *3148:Y O *D sg13g2_xnor2_1
*CAP
1 *3172:CLK 0
2 *3148:Y 0.000878971
3 *71:18 0
4 *71:14 0.00259155
5 *71:10 0.00347052
6 *71:10 *2938:A0 0.00011174
7 *71:10 *3562:A 0.000984648
8 *71:10 *350:20 0.000823458
9 *71:10 *523:14 0
10 *71:10 *554:22 0.000128781
11 *71:10 *623:89 8.00842e-05
12 *71:10 *657:16 0
13 *71:14 *72:10 0
14 *71:14 *89:18 0
15 *71:14 *300:30 0
16 *71:14 *528:16 0
17 *71:14 *563:18 0
18 *16:9 *71:14 0
19 *17:9 *71:14 0
20 *68:19 *71:10 0
*RES
1 *3148:Y *71:10 49.785 
2 *71:10 *71:14 43.0035 
3 *71:14 *71:18 40 
4 *71:18 *3172:CLK 20 
*END

*D_NET *72 0.0131545
*CONN
*I *3173:CLK I *D sg13g2_dfrbpq_1
*I *3149:Y O *D sg13g2_xnor2_1
*CAP
1 *3173:CLK 0
2 *3149:Y 0
3 *72:16 0.000327342
4 *72:10 0.00295013
5 *72:6 0.00262279
6 *72:10 *89:18 0.00244151
7 *72:10 *92:14 0
8 *72:10 *352:30 0.00322194
9 *72:10 *528:16 0.000176173
10 *72:10 *563:18 0
11 *72:16 *243:14 0
12 *72:16 *256:48 0.000972865
13 *72:16 *691:41 0.000441716
14 *17:9 *72:10 0
15 *71:14 *72:10 0
*RES
1 *3149:Y *72:6 40 
2 *72:6 *72:10 49.5198 
3 *72:10 *72:16 44.5526 
4 *72:16 *3173:CLK 20 
*END

*D_NET *73 0.00540601
*CONN
*I *3174:CLK I *D sg13g2_dfrbpq_1
*I *3150:Y O *D sg13g2_xnor2_1
*CAP
1 *3174:CLK 0.000568327
2 *3150:Y 0.000864249
3 *73:8 0.00143258
4 *3174:CLK *317:10 0
5 *3174:CLK *342:35 0
6 *3174:CLK *348:55 0.000112198
7 *3174:CLK *657:10 0.000565235
8 *73:8 *3433:A 0
9 *73:8 *493:8 0
10 *73:8 *554:22 0.00165392
11 *73:8 *623:140 0
12 *73:8 *689:27 0
13 *12:11 *73:8 0
14 *52:12 *3174:CLK 0.000209499
15 *52:18 *3174:CLK 0
*RES
1 *3150:Y *73:8 49.4966 
2 *73:8 *3174:CLK 45.8607 
*END

*D_NET *74 0.00756328
*CONN
*I *3175:CLK I *D sg13g2_dfrbpq_1
*I *3151:Y O *D sg13g2_xnor2_1
*CAP
1 *3175:CLK 0
2 *3151:Y 0.00139065
3 *74:20 0.000832182
4 *74:12 0.00222284
5 *74:12 *3151:B 0
6 *74:12 *3320:D 0.000306021
7 *74:12 *3334:D 0
8 *74:12 *3364:RESET_B 0.000176394
9 *74:12 *92:10 0.000661114
10 *74:12 *297:36 0
11 *74:12 *298:32 0.000306081
12 *74:12 *298:40 0.000758314
13 *74:12 *300:38 0
14 *74:12 *300:52 0
15 *74:12 *350:20 0
16 *74:12 *508:30 6.18224e-06
17 *74:20 *275:10 0
18 *74:20 *297:26 0.000629315
19 *74:20 *520:20 0
20 *74:20 *534:12 0.000274182
21 *3354:D *74:20 0
22 *68:19 *74:20 0
*RES
1 *3151:Y *74:12 34.317 
2 *74:12 *74:20 47.5293 
3 *74:20 *3175:CLK 20 
*END

*D_NET *75 0.0257781
*CONN
*I *3176:CLK I *D sg13g2_dfrbpq_1
*I *3152:Y O *D sg13g2_xnor2_1
*CAP
1 *3176:CLK 0
2 *3152:Y 0
3 *75:22 0.00179841
4 *75:8 0.00437526
5 *75:6 0.00257685
6 *75:8 *3401:A 0.00183565
7 *75:8 *106:16 0.00156809
8 *75:8 *236:44 0
9 *75:8 *256:91 0.000716129
10 *75:8 *260:55 0
11 *75:8 *291:58 0
12 *75:8 *322:39 0.00172015
13 *75:8 *673:18 0.00704801
14 *75:8 *703:10 0
15 *75:8 *706:10 0.000178206
16 *75:8 *706:47 0.000604668
17 *75:8 *706:59 0
18 *75:22 *2941:A1 0
19 *75:22 *2942:A0 0
20 *75:22 *2944:S 0
21 *75:22 *3173:D 8.00842e-05
22 *75:22 *3177:D 0
23 *75:22 *95:10 3.13457e-05
24 *75:22 *96:10 0.000563311
25 *75:22 *148:8 0.000112381
26 *75:22 *295:16 0.000466728
27 *75:22 *348:18 0.000144542
28 *75:22 *506:8 0
29 *75:22 *625:100 0
30 *75:22 *625:117 0.00027327
31 *75:22 *625:132 0.000112384
32 *75:22 *668:27 0
33 *8:9 *75:8 0.00157262
*RES
1 *3152:Y *75:6 40 
2 *75:6 *75:8 44.1046 
3 *75:8 *75:22 37.1495 
4 *75:22 *3176:CLK 20 
*END

*D_NET *76 0.0224417
*CONN
*I *3177:CLK I *D sg13g2_dfrbpq_1
*I *3153:Y O *D sg13g2_xnor2_1
*CAP
1 *3177:CLK 0
2 *3153:Y 0.000988945
3 *76:12 0.00304439
4 *76:10 0.00403333
5 *76:10 *2975:A 0
6 *76:10 *3153:A 0.000819392
7 *76:10 *3229:RESET_B 0.00012881
8 *76:10 *421:14 0.000378984
9 *76:10 *625:12 0
10 *76:10 *630:47 0.000111567
11 *76:12 *3357:D 0.00113439
12 *76:12 *163:22 0.00092615
13 *76:12 *299:10 0
14 *76:12 *311:8 0
15 *76:12 *323:31 0.00180979
16 *76:12 *323:37 0.000288675
17 *76:12 *328:92 0.00311546
18 *76:12 *414:40 0
19 *76:12 *522:34 0.00190905
20 *76:12 *522:48 0.000550747
21 *76:12 *631:26 0.000609733
22 *76:12 *666:8 0.000340324
23 *76:12 *666:16 0
24 *76:12 *697:46 0.000656305
25 *76:12 *702:24 0.00159561
26 *76:12 *703:56 0
27 *76:12 *703:66 0
*RES
1 *3153:Y *76:10 49.5378 
2 *76:10 *76:12 44.8462 
3 *76:12 *3177:CLK 40 
*END

*D_NET *77 0.00169629
*CONN
*I *3340:CLK I *D sg13g2_dfrbpq_1
*I *3154:Y O *D sg13g2_xnor2_1
*CAP
1 *3340:CLK 0.000107305
2 *3154:Y 0.000333638
3 *77:12 0.000440943
4 *3340:CLK *2950:A 0.000143908
5 *77:12 *3154:B 0
6 *77:12 *515:14 0.000334861
7 *77:12 *572:30 0
8 *77:12 *586:106 0.000335639
9 *77:12 *615:14 0
*RES
1 *3154:Y *77:12 43.8316 
2 *77:12 *3340:CLK 40.9682 
*END

*D_NET *78 0.00182491
*CONN
*I *3341:CLK I *D sg13g2_dfrbpq_1
*I *3155:Y O *D sg13g2_xnor2_1
*CAP
1 *3341:CLK 0.000451253
2 *3155:Y 0.000112844
3 *78:8 0.000564097
4 *3341:CLK *239:20 0
5 *3341:CLK *583:87 0.000143248
6 *78:8 *677:12 0.000179192
7 *78:8 *695:16 2.14736e-05
8 *65:12 *3341:CLK 0
9 *65:28 *3341:CLK 0.0003528
*RES
1 *3155:Y *78:8 41.0918 
2 *78:8 *3341:CLK 44.8616 
*END

*D_NET *79 0.000721632
*CONN
*I *3342:CLK I *D sg13g2_dfrbpq_1
*I *3156:Y O *D sg13g2_xnor2_1
*CAP
1 *3342:CLK 0.000207324
2 *3156:Y 0.000207324
3 *3342:CLK *349:14 0
4 *3342:CLK *579:20 0.000306984
*RES
1 *3156:Y *3342:CLK 42.0497 
*END

*D_NET *80 0.00148614
*CONN
*I *3343:CLK I *D sg13g2_dfrbpq_1
*I *3157:Y O *D sg13g2_xnor2_1
*CAP
1 *3343:CLK 0
2 *3157:Y 0.000394183
3 *80:10 0.000394183
4 *80:10 *245:8 0.000177702
5 *80:10 *245:37 0.000504641
6 *80:10 *345:87 0
7 *80:10 *349:22 0
8 uio_oe[6] *80:10 0
9 *66:22 *80:10 1.54285e-05
*RES
1 *3157:Y *80:10 44.4702 
2 *80:10 *3343:CLK 40 
*END

*D_NET *81 0.000696617
*CONN
*I *3344:CLK I *D sg13g2_dfrbpq_1
*I *3158:Y O *D sg13g2_xnor2_1
*CAP
1 *3344:CLK 0.000243545
2 *3158:Y 0.000243545
3 *3344:CLK *3322:D 0.000209526
4 *3344:CLK *585:75 0
5 *30:16 *3344:CLK 0
*RES
1 *3158:Y *3344:CLK 42.3999 
*END

*D_NET *82 0.000656936
*CONN
*I *3345:CLK I *D sg13g2_dfrbpq_1
*I *3159:Y O *D sg13g2_xnor2_1
*CAP
1 *3345:CLK 0.00021675
2 *3159:Y 0.00021675
3 *3345:CLK *586:39 0.000208035
4 *3345:CLK *586:41 1.54008e-05
*RES
1 *3159:Y *3345:CLK 42.2454 
*END

*D_NET *83 0.000418455
*CONN
*I *3346:CLK I *D sg13g2_dfrbpq_1
*I *3160:Y O *D sg13g2_xnor2_1
*CAP
1 *3346:CLK 0.000209227
2 *3160:Y 0.000209227
*RES
1 *3160:Y *3346:CLK 41.751 
*END

*D_NET *84 0.00107231
*CONN
*I *3347:CLK I *D sg13g2_dfrbpq_1
*I *3161:Y O *D sg13g2_xnor2_1
*CAP
1 *3347:CLK 3.73836e-05
2 *3161:Y 0.000498771
3 *84:8 0.000536154
4 *84:8 *281:20 0
5 *84:8 *354:12 0
*RES
1 *3161:Y *84:8 43.811 
2 *84:8 *3347:CLK 40.3193 
*END

*D_NET *85 0.000508636
*CONN
*I *3348:CLK I *D sg13g2_dfrbpq_1
*I *3162:Y O *D sg13g2_xnor2_1
*CAP
1 *3348:CLK 0.000165739
2 *3162:Y 0.000165739
3 *3348:CLK *3124:S 0
4 *3348:CLK *3218:CLK 0.000177157
*RES
1 *3162:Y *3348:CLK 41.751 
*END

*D_NET *86 0.000480126
*CONN
*I *3349:CLK I *D sg13g2_dfrbpq_1
*I *3163:Y O *D sg13g2_xnor2_1
*CAP
1 *3349:CLK 0.000240063
2 *3163:Y 0.000240063
3 *3349:CLK *3123:S 0
4 *3349:CLK *3163:B 0
*RES
1 *3163:Y *3349:CLK 42.2454 
*END

*D_NET *87 0.00141705
*CONN
*I *3350:CLK I *D sg13g2_dfrbpq_1
*I *3164:Y O *D sg13g2_xnor2_1
*CAP
1 *3350:CLK 3.4601e-05
2 *3164:Y 0.000262604
3 *87:8 0.000297205
4 *87:8 *299:71 0.000822642
5 *87:8 *405:16 0
*RES
1 *3164:Y *87:8 43.811 
2 *87:8 *3350:CLK 40.3193 
*END

*D_NET *88 0.000442831
*CONN
*I *3351:CLK I *D sg13g2_dfrbpq_1
*I *3165:Y O *D sg13g2_xnor2_1
*CAP
1 *3351:CLK 0.000221416
2 *3165:Y 0.000221416
3 *3351:CLK *3245:RESET_B 0
4 *3351:CLK *589:72 0
*RES
1 *3165:Y *3351:CLK 41.751 
*END

*D_NET *89 0.0177781
*CONN
*I *3352:CLK I *D sg13g2_dfrbpq_1
*I *3166:Y O *D sg13g2_xnor2_1
*CAP
1 *3352:CLK 0.000669081
2 *3166:Y 3.94675e-05
3 *89:18 0.00317925
4 *89:14 0.0040508
5 *89:8 0.00158011
6 *3352:CLK *245:24 0.000181335
7 *3352:CLK *431:42 0.000125963
8 *3352:CLK *519:22 0
9 *3352:CLK *697:10 0.000285721
10 *89:8 *238:10 7.30101e-05
11 *89:14 *238:14 0
12 *89:14 *561:48 0.0015513
13 *89:18 *92:14 0
14 *89:18 *238:14 0
15 *89:18 *300:30 0
16 *89:18 *563:18 0.000704919
17 *30:20 *89:14 0.00289565
18 *30:20 *89:18 0
19 *52:24 *3352:CLK 0
20 *71:14 *89:18 0
21 *72:10 *89:18 0.00244151
*RES
1 *3166:Y *89:8 40.3502 
2 *89:8 *89:14 39.4876 
3 *89:14 *89:18 49.3035 
4 *89:18 *3352:CLK 45.5414 
*END

*D_NET *90 0.0137072
*CONN
*I *3353:CLK I *D sg13g2_dfrbpq_1
*I *3167:Y O *D sg13g2_xnor2_1
*CAP
1 *3353:CLK 0
2 *3167:Y 0.000470321
3 *90:24 0.000192585
4 *90:14 0.00347831
5 *90:12 0.00328572
6 *90:10 0.000470321
7 *90:10 *428:32 0.00117748
8 *90:10 *429:39 0
9 *90:10 *443:10 4.75151e-05
10 *90:14 *3174:D 0
11 *90:14 *3237:RESET_B 0.000597921
12 *90:14 *3359:RESET_B 0
13 *90:14 *3362:RESET_B 0
14 *90:14 *3362:D 0
15 *90:14 *246:16 0.00111542
16 *90:14 *351:20 0
17 *90:14 *489:23 0
18 *90:14 *522:71 0
19 *90:14 *616:112 0.000176599
20 *90:14 *616:125 0.000129562
21 *90:14 *623:46 0.00040169
22 *90:14 *623:50 0.000388353
23 *90:14 *623:60 0.000467574
24 *90:14 *624:54 0.00019354
25 *90:14 *624:56 0.00032381
26 *90:14 *624:58 0.000323252
27 *90:14 *624:60 0.000258338
28 *90:14 *632:60 1.54008e-05
29 *90:14 *649:10 0
30 *90:24 *522:63 0
31 *90:24 *564:14 1.54008e-05
32 *90:24 *625:58 0
33 *90:24 *700:14 0.000178087
*RES
1 *3167:Y *90:10 45.8607 
2 *90:10 *90:12 20 
3 *90:12 *90:14 31.8991 
4 *90:14 *90:24 41.9776 
5 *90:24 *3353:CLK 20 
*END

*D_NET *91 0.00155438
*CONN
*I *3354:CLK I *D sg13g2_dfrbpq_1
*I *3168:Y O *D sg13g2_xnor2_1
*CAP
1 *3354:CLK 5.08741e-05
2 *3168:Y 0.000357948
3 *91:8 0.000408822
4 *3354:CLK *271:12 8.00842e-05
5 *91:8 *242:18 0
6 *91:8 *249:12 0.000656652
7 *91:8 *592:86 0
8 *91:8 *624:78 0
*RES
1 *3168:Y *91:8 43.811 
2 *91:8 *3354:CLK 40.5356 
*END

*D_NET *92 0.0138886
*CONN
*I *3355:CLK I *D sg13g2_dfrbpq_1
*I *3169:Y O *D sg13g2_xnor2_1
*CAP
1 *3355:CLK 7.21839e-05
2 *3169:Y 0.000418662
3 *92:18 0.00130746
4 *92:14 0.00328881
5 *92:10 0.0024722
6 *3355:CLK *508:6 0.000112569
7 *92:10 *3151:B 0.000435225
8 *92:10 *297:46 0
9 *92:10 *298:40 8.00842e-05
10 *92:10 *610:58 7.48209e-05
11 *92:14 *243:73 0.000409804
12 *92:14 *352:30 0
13 *92:14 *563:14 0
14 *92:14 *581:10 0.00178516
15 *92:14 *600:81 0
16 *92:18 *297:24 0
17 *92:18 *487:16 0
18 *92:18 *508:20 0
19 *92:18 *519:22 0
20 *92:18 *522:63 0.000179786
21 *92:18 *692:8 0
22 *16:9 *92:18 0
23 *17:9 *92:18 0
24 *31:20 *3355:CLK 0
25 *52:24 *92:18 0.00259071
26 *72:10 *92:14 0
27 *74:12 *92:10 0.000661114
28 *89:18 *92:14 0
*RES
1 *3169:Y *92:10 44.7792 
2 *92:10 *92:14 42.5982 
3 *92:14 *92:18 33.4518 
4 *92:18 *3355:CLK 40.7519 
*END

*D_NET *93 0.00639512
*CONN
*I *3170:D I *D sg13g2_dfrbpq_1
*I *2944:X O *D sg13g2_mux2_1
*CAP
1 *3170:D 0
2 *2944:X 0.000395515
3 *93:18 0.00134987
4 *93:12 0.00174538
5 *93:12 *298:22 0.000125977
6 *93:12 *524:10 0
7 *93:12 *533:40 0.000144762
8 *93:12 *697:46 0
9 *93:18 *3003:A 0.000175693
10 *93:18 *163:14 0
11 *93:18 *298:22 0
12 *93:18 *301:34 0.000208035
13 *93:18 *431:56 0
14 *93:18 *432:16 0.00202091
15 *93:18 *533:40 0
16 *93:18 *704:34 0.000228976
*RES
1 *2944:X *93:12 43.8316 
2 *93:12 *93:18 34.0492 
3 *93:18 *3170:D 20 
*END

*D_NET *94 0.000556367
*CONN
*I *3171:D I *D sg13g2_dfrbpq_1
*I *2943:X O *D sg13g2_mux2_1
*CAP
1 *3171:D 0
2 *2943:X 7.05436e-05
3 *94:10 7.05436e-05
4 *94:10 *297:24 8.00842e-05
5 *94:10 *347:44 8.01116e-05
6 *94:10 *657:16 0.000127542
7 *94:10 *667:8 0.000127542
*RES
1 *2943:X *94:10 41.133 
2 *94:10 *3171:D 40 
*END

*D_NET *95 0.00303568
*CONN
*I *3172:D I *D sg13g2_dfrbpq_1
*I *2942:X O *D sg13g2_mux2_1
*CAP
1 *3172:D 0.000294737
2 *2942:X 8.65546e-05
3 *95:18 0.000647419
4 *95:10 0.000439236
5 *3172:D *256:48 0.000307126
6 *95:10 *266:18 0.000341216
7 *95:10 *592:151 0.000342145
8 *95:18 *2942:A0 0.000272949
9 *95:18 *2942:S 0.000272949
10 *6:14 *95:18 0
11 *7:9 *3172:D 0
12 *75:22 *95:10 3.13457e-05
*RES
1 *2942:X *95:10 41.7974 
2 *95:10 *95:18 43.6668 
3 *95:18 *3172:D 43.1312 
*END

*D_NET *96 0.0021249
*CONN
*I *3173:D I *D sg13g2_dfrbpq_1
*I *2941:X O *D sg13g2_mux2_1
*CAP
1 *3173:D 0.000144712
2 *2941:X 0.000365314
3 *96:10 0.000510026
4 *3173:D *506:8 0
5 *96:10 *2941:A1 0.000126358
6 *96:10 *3368:RESET_B 0
7 *96:10 *348:18 0.000208738
8 *96:10 *668:12 0
9 *96:10 *668:27 0
10 *15:13 *96:10 0.000126358
11 *75:22 *3173:D 8.00842e-05
12 *75:22 *96:10 0.000563311
*RES
1 *2941:X *96:10 44.3775 
2 *96:10 *3173:D 41.3184 
*END

*D_NET *97 0.000225421
*CONN
*I *3174:D I *D sg13g2_dfrbpq_1
*I *2939:X O *D sg13g2_mux2_1
*CAP
1 *3174:D 0.00011271
2 *2939:X 0.00011271
3 *90:14 *3174:D 0
*RES
1 *2939:X *3174:D 41.133 
*END

*D_NET *98 0.00158712
*CONN
*I *3175:D I *D sg13g2_dfrbpq_1
*I *2938:X O *D sg13g2_mux2_1
*CAP
1 *3175:D 0
2 *2938:X 0.000357608
3 *98:10 0.000357608
4 *98:10 *3562:A 0.000305395
5 *98:10 *348:36 0
6 *98:10 *532:8 0.000387123
7 *98:10 *623:89 0.000179389
8 *12:11 *98:10 0
*RES
1 *2938:X *98:10 43.8831 
2 *98:10 *3175:D 40 
*END

*D_NET *99 0.00146003
*CONN
*I *3176:D I *D sg13g2_dfrbpq_1
*I *2937:X O *D sg13g2_mux2_1
*CAP
1 *3176:D 0
2 *2937:X 0.00057518
3 *99:10 0.00057518
4 *99:10 *2943:S 8.00842e-05
5 *99:10 *3176:RESET_B 0
6 *99:10 *243:47 0.000229583
7 *99:10 *348:18 0
8 *99:10 *625:100 0
9 *99:10 *700:24 0
10 *19:9 *99:10 0
*RES
1 *2937:X *99:10 44.8719 
2 *99:10 *3176:D 40 
*END

*D_NET *100 0.00192047
*CONN
*I *3177:D I *D sg13g2_dfrbpq_1
*I *2936:X O *D sg13g2_mux2_1
*CAP
1 *3177:D 0.000784542
2 *2936:X 0.000784542
3 *3177:D *416:53 0
4 *3177:D *506:8 0.000272718
5 *3177:D *528:10 0
6 *3177:D *544:46 0
7 *3177:D *562:30 7.86681e-05
8 *3177:D *625:132 0
9 *75:22 *3177:D 0
*RES
1 *2936:X *3177:D 47.7971 
*END

*D_NET *101 0.00897765
*CONN
*I *3178:D I *D sg13g2_dfrbpq_1
*I *3006:Y O *D sg13g2_xnor2_1
*CAP
1 *3178:D 0
2 *3006:Y 0.000305183
3 *101:14 0.00247627
4 *101:8 0.00278146
5 *101:8 *3065:A1 0.000111568
6 *101:8 *701:81 0
7 *101:14 *3146:A1 0.000111711
8 *101:14 *102:8 0
9 *101:14 *319:36 0
10 *101:14 *319:47 0
11 *101:14 *319:81 0.00197043
12 *101:14 *600:102 0.000124862
13 *101:14 *627:69 0
14 *101:14 *627:84 0.000179234
15 *101:14 *701:73 0.000761132
16 *101:14 *701:127 0.000155794
17 *6:48 *101:14 0
*RES
1 *3006:Y *101:8 42.4823 
2 *101:8 *101:14 44.0917 
3 *101:14 *3178:D 20 
*END

*D_NET *102 0.0010916
*CONN
*I *3179:D I *D sg13g2_dfrbpq_1
*I *3009:X O *D sg13g2_and2_1
*CAP
1 *3179:D 0.000140195
2 *3009:X 0.000181953
3 *102:8 0.000322148
4 *3179:D *3226:CLK 0
5 *3179:D *627:30 0
6 *102:8 *319:47 0.000447303
7 *101:14 *102:8 0
*RES
1 *3009:X *102:8 42.0806 
2 *102:8 *3179:D 41.1845 
*END

*D_NET *103 0.00354009
*CONN
*I *3180:D I *D sg13g2_dfrbpq_1
*I *3011:Y O *D sg13g2_xnor2_1
*CAP
1 *3180:D 0.000207736
2 *3011:Y 0.000763526
3 *103:10 0.000971262
4 *3180:D *3226:CLK 0
5 *3180:D *627:28 1.54008e-05
6 *3180:D *627:63 0.000112008
7 *3180:D *704:58 0.000144964
8 *103:10 *3146:A1 0.000240377
9 *103:10 *3464:A 0.00108482
10 *103:10 *234:8 0
11 *103:10 *295:10 0
12 *103:10 *310:28 0
13 *103:10 *627:63 0
14 *6:48 *103:10 0
*RES
1 *3011:Y *103:10 48.8889 
2 *103:10 *3180:D 42.0497 
*END

*D_NET *104 0.00440848
*CONN
*I *3181:D I *D sg13g2_dfrbpq_1
*I *3014:Y O *D sg13g2_a21oi_1
*CAP
1 *3181:D 0
2 *3014:Y 0
3 *104:22 7.96311e-05
4 *104:16 0.00211539
5 *104:10 0.00203576
6 *104:6 0
7 *104:16 *236:34 0
8 *104:16 *236:40 0
9 *104:16 *300:22 0
10 *104:16 *701:93 0.00013029
11 *104:16 *703:35 0
12 *104:16 *706:51 0
13 *104:22 *704:16 4.74036e-05
*RES
1 *3014:Y *104:6 40 
2 *104:6 *104:10 40 
3 *104:10 *104:16 44.2462 
4 *104:16 *104:22 40.7519 
5 *104:22 *3181:D 20 
*END

*D_NET *105 0.0172521
*CONN
*I *3182:D I *D sg13g2_dfrbpq_1
*I *3015:X O *D sg13g2_xor2_1
*CAP
1 *3182:D 0.000391345
2 *3015:X 0.000191799
3 *105:14 0.00278013
4 *105:12 0.00258058
5 *105:12 *3015:B 4.77425e-05
6 *105:14 *260:26 0
7 *105:14 *260:47 0.00410329
8 *105:14 *269:14 0
9 *105:14 *339:8 0.00200969
10 *105:14 *346:50 0.00329982
11 *105:14 *702:44 0.00184773
12 *68:50 *3182:D 0
13 *69:6 *3182:D 0
*RES
1 *3015:X *105:12 41.8849 
2 *105:12 *105:14 37.183 
3 *105:14 *3182:D 42.3411 
*END

*D_NET *106 0.00539926
*CONN
*I *3183:D I *D sg13g2_dfrbpq_1
*I *3018:Y O *D sg13g2_a21oi_1
*CAP
1 *3183:D 0
2 *3018:Y 0.000200716
3 *106:16 0.000569689
4 *106:12 0.000770405
5 *106:12 *3013:A 1.54285e-05
6 *106:12 *3013:B 1.54008e-05
7 *106:12 *267:6 0
8 *106:16 *236:44 0.00225953
9 *8:9 *106:16 0
10 *75:8 *106:16 0.00156809
*RES
1 *3018:Y *106:12 42.0703 
2 *106:12 *106:16 30.4854 
3 *106:16 *3183:D 20 
*END

*D_NET *107 0.0149974
*CONN
*I *3184:D I *D sg13g2_dfrbpq_1
*I *3019:Y O *D sg13g2_xnor2_1
*CAP
1 *3184:D 0
2 *3019:Y 8.43842e-05
3 *107:32 0.000348511
4 *107:24 0.000703683
5 *107:16 0.00126891
6 *107:10 0.000998121
7 *107:10 *3017:B1 7.92265e-05
8 *107:10 *260:55 1.56751e-05
9 *107:16 *260:47 0.000874845
10 *107:16 *260:55 0.00247751
11 *107:16 *673:18 0
12 *107:16 *702:44 0.0018891
13 *107:16 *703:18 0.000182109
14 *107:16 *704:16 0
15 *107:16 *704:58 0
16 *107:24 *3012:B 7.33225e-05
17 *107:24 *260:47 0.00162277
18 *107:24 *673:18 0
19 *107:24 *703:18 0.00151352
20 *107:32 *260:18 0.00014454
21 *107:32 *260:47 0.00135288
22 *107:32 *706:18 1.54008e-05
23 *107:32 *707:10 0.00135288
*RES
1 *3019:Y *107:10 40.8549 
2 *107:10 *107:16 36.0268 
3 *107:16 *107:24 48.1164 
4 *107:24 *107:32 47.2512 
5 *107:32 *3184:D 20 
*END

*D_NET *108 0.0100098
*CONN
*I *3185:D I *D sg13g2_dfrbpq_1
*I *3020:X O *D sg13g2_mux2_1
*CAP
1 *3185:D 0
2 *3020:X 0.000178866
3 *108:14 0.000981159
4 *108:8 0.00116003
5 *108:8 *632:60 0.000240377
6 *108:14 *301:12 0.00249909
7 *108:14 *345:12 0.0031906
8 *108:14 *351:71 0
9 *108:14 *356:14 0.00050146
10 *108:14 *356:20 0
11 *108:14 *562:63 0.000707222
12 *108:14 *639:32 0.000551025
*RES
1 *3020:X *108:8 41.6171 
2 *108:8 *108:14 38.9314 
3 *108:14 *3185:D 20 
*END

*D_NET *109 0.0011328
*CONN
*I *3186:D I *D sg13g2_dfrbpq_1
*I *3021:X O *D sg13g2_mux2_1
*CAP
1 *3186:D 5.33217e-05
2 *3021:X 0.000203791
3 *109:10 0.000257112
4 *3186:D *3358:D 0
5 *109:10 *3358:D 0
6 *109:10 *323:10 0.000289003
7 *109:10 *599:36 0.000218566
8 *109:10 *641:112 0.00011101
*RES
1 *3021:X *109:10 42.5235 
2 *109:10 *3186:D 40.5356 
*END

*D_NET *110 0.00104475
*CONN
*I *3187:D I *D sg13g2_dfrbpq_1
*I *3022:X O *D sg13g2_mux2_1
*CAP
1 *3187:D 0.000450601
2 *3022:X 0.000450601
3 *3187:D *3628:f_osc_multiply_factor[0] 0
4 *3187:D *393:6 4.77074e-05
5 *3187:D *393:28 9.58364e-05
*RES
1 *3022:X *3187:D 44.326 
*END

*D_NET *111 0.00123738
*CONN
*I *3188:D I *D sg13g2_dfrbpq_1
*I *3023:X O *D sg13g2_mux2_1
*CAP
1 *3188:D 6.4395e-05
2 *3023:X 0.000179149
3 *111:10 0.000243544
4 *111:10 *3628:f_osc_multiply_factor[4] 0.000175693
5 *111:10 *323:10 0.000287342
6 *111:10 *599:36 0.000287256
*RES
1 *3023:X *111:10 42.5235 
2 *111:10 *3188:D 40.5356 
*END

*D_NET *112 0.00216602
*CONN
*I *3189:D I *D sg13g2_dfrbpq_1
*I *3024:X O *D sg13g2_mux2_1
*CAP
1 *3189:D 6.02809e-05
2 *3024:X 0.000756832
3 *112:14 0.000817113
4 *112:14 *3024:A0 0
5 *112:14 *3024:A1 0
6 *112:14 *3031:A0 0.000175836
7 *112:14 *3196:D 0
8 *112:14 *3404:A 1.54008e-05
9 *112:14 *290:35 0
10 *112:14 *291:45 0
11 *112:14 *291:56 0
12 *112:14 *385:28 0.00034056
13 *112:14 *598:82 0
*RES
1 *3024:X *112:14 46.1595 
2 *112:14 *3189:D 40.5356 
*END

*D_NET *113 0.000491394
*CONN
*I *3190:D I *D sg13g2_dfrbpq_1
*I *3025:X O *D sg13g2_mux2_1
*CAP
1 *3190:D 0.000245697
2 *3025:X 0.000245697
3 *3190:D *3025:A1 0
4 *3190:D *426:55 0
*RES
1 *3025:X *3190:D 42.3999 
*END

*D_NET *114 0.00100249
*CONN
*I *3191:D I *D sg13g2_dfrbpq_1
*I *3026:X O *D sg13g2_mux2_1
*CAP
1 *3191:D 0.000429553
2 *3026:X 0.000429553
3 *3191:D *3191:RESET_B 0
4 *3191:D *286:19 0
5 *3191:D *470:14 0.000143384
*RES
1 *3026:X *3191:D 44.3672 
*END

*D_NET *115 0.00183147
*CONN
*I *3192:D I *D sg13g2_dfrbpq_1
*I *3027:X O *D sg13g2_mux2_1
*CAP
1 *3192:D 7.82946e-05
2 *3027:X 0.000664088
3 *115:10 0.000742382
4 *3192:D *3191:RESET_B 0
5 *3192:D *332:30 0.000111567
6 *115:10 *3027:A0 0
7 *115:10 *3027:A1 0
8 *115:10 *3027:S 0
9 *115:10 *3374:A 0
10 *115:10 *286:19 0
11 *115:10 *332:30 0
12 *115:10 *448:23 0
13 *115:10 *599:67 0.000235141
14 *115:10 *646:10 0
15 *115:10 *647:37 0
*RES
1 *3027:X *115:10 46.386 
2 *115:10 *3192:D 40.7519 
*END

*D_NET *116 0.000698148
*CONN
*I *3193:D I *D sg13g2_dfrbpq_1
*I *3028:X O *D sg13g2_mux2_1
*CAP
1 *3193:D 0.000349074
2 *3028:X 0.000349074
3 *3193:D *481:27 0
*RES
1 *3028:X *3193:D 43.9449 
*END

*D_NET *117 0.000762502
*CONN
*I *3194:D I *D sg13g2_dfrbpq_1
*I *3029:X O *D sg13g2_mux2_1
*CAP
1 *3194:D 0.000381251
2 *3029:X 0.000381251
3 *3194:D *3029:A1 0
4 *3194:D *3029:S 0
5 *3194:D *599:65 0
*RES
1 *3029:X *3194:D 43.7286 
*END

*D_NET *118 0.000705952
*CONN
*I *3195:D I *D sg13g2_dfrbpq_1
*I *3030:X O *D sg13g2_mux2_1
*CAP
1 *3195:D 0.000256755
2 *3030:X 0.000256755
3 *3195:D *3030:A1 4.77425e-05
4 *3195:D *3195:RESET_B 0
5 *3195:D *367:12 0.0001447
6 *3195:D *500:21 0
7 *3195:D *640:8 0
*RES
1 *3030:X *3195:D 42.6471 
*END

*D_NET *119 0.00156722
*CONN
*I *3196:D I *D sg13g2_dfrbpq_1
*I *3031:X O *D sg13g2_mux2_1
*CAP
1 *3196:D 0.000534693
2 *3031:X 0.000534693
3 *3196:D *3031:A0 0
4 *3196:D *3031:A1 0.000497837
5 *3196:D *3189:RESET_B 0
6 *3196:D *3628:f_clk1_divider[1] 0
7 *3196:D *291:45 0
8 *112:14 *3196:D 0
*RES
1 *3031:X *3196:D 45.3766 
*END

*D_NET *120 0.00184533
*CONN
*I *3197:D I *D sg13g2_dfrbpq_1
*I *3032:X O *D sg13g2_mux2_1
*CAP
1 *3197:D 5.70062e-05
2 *3032:X 0.00031025
3 *120:10 0.000367256
4 *120:10 *3032:A0 0.000448515
5 *120:10 *385:10 0
6 *120:10 *385:22 0
7 *120:10 *599:36 0.000662302
*RES
1 *3032:X *120:10 44.2539 
2 *120:10 *3197:D 40.5356 
*END

*D_NET *121 0.000772217
*CONN
*I *3198:D I *D sg13g2_dfrbpq_1
*I *3033:X O *D sg13g2_mux2_1
*CAP
1 *3198:D 0.000265154
2 *3033:X 0.000265154
3 *3198:D *3628:clk0_phase_sel[0] 0
4 *3198:D *594:63 0.000241908
5 *3198:D *636:105 0
*RES
1 *3033:X *3198:D 43.2033 
*END

*D_NET *122 0.000650084
*CONN
*I *3199:D I *D sg13g2_dfrbpq_1
*I *3034:X O *D sg13g2_mux2_1
*CAP
1 *3199:D 0.000252658
2 *3034:X 0.000252658
3 *3199:D *398:31 0.000144768
*RES
1 *3034:X *3199:D 42.3999 
*END

*D_NET *123 0.000764277
*CONN
*I *3200:D I *D sg13g2_dfrbpq_1
*I *3035:X O *D sg13g2_mux2_1
*CAP
1 *3200:D 0.00019336
2 *3035:X 0.000188779
3 *123:8 0.000382139
4 *3200:D *3035:A0 0
5 *123:8 *411:10 0
6 *123:8 *599:75 0
*RES
1 *3035:X *123:8 41.5862 
2 *123:8 *3200:D 41.6171 
*END

*D_NET *124 0.000506001
*CONN
*I *3201:D I *D sg13g2_dfrbpq_1
*I *3036:X O *D sg13g2_mux2_1
*CAP
1 *3201:D 0.000253001
2 *3036:X 0.000253001
3 *3201:D *3201:RESET_B 0
4 *3201:D *3628:f_clk2_divider[4] 0
*RES
1 *3036:X *3201:D 41.3879 
*END

*D_NET *125 0.000442332
*CONN
*I *3202:D I *D sg13g2_dfrbpq_1
*I *3037:X O *D sg13g2_mux2_1
*CAP
1 *3202:D 0.000221166
2 *3037:X 0.000221166
3 *3202:D *3037:A0 0
*RES
1 *3037:X *3202:D 42.4617 
*END

*D_NET *126 0.000621501
*CONN
*I *3203:D I *D sg13g2_dfrbpq_1
*I *3038:X O *D sg13g2_mux2_1
*CAP
1 *3203:D 0.000167525
2 *3038:X 0.000143225
3 *126:8 0.00031075
4 *3203:D *3038:A1 0
5 *3203:D *390:12 0
6 *126:8 *337:12 0
7 *126:8 *599:75 0
*RES
1 *3038:X *126:8 41.339 
2 *126:8 *3203:D 41.6171 
*END

*D_NET *127 0.000199655
*CONN
*I *3204:D I *D sg13g2_dfrbpq_1
*I *3039:X O *D sg13g2_mux2_1
*CAP
1 *3204:D 9.98277e-05
2 *3039:X 9.98277e-05
3 *3204:D *3039:A1 0
4 *3204:D *646:83 0
*RES
1 *3039:X *3204:D 41.133 
*END

*D_NET *128 0.0012536
*CONN
*I *3205:D I *D sg13g2_dfrbpq_1
*I *3040:X O *D sg13g2_mux2_1
*CAP
1 *3205:D 0.000179156
2 *3040:X 0.000110349
3 *128:8 0.000289505
4 *3205:D *3040:A0 0.000240607
5 *3205:D *337:39 0.000305318
6 *128:8 *394:12 0
7 *128:8 *394:18 0.000128663
8 *128:8 *477:25 0
*RES
1 *3040:X *128:8 41.339 
2 *128:8 *3205:D 42.0497 
*END

*D_NET *129 0.00127946
*CONN
*I *3206:D I *D sg13g2_dfrbpq_1
*I *3041:X O *D sg13g2_mux2_1
*CAP
1 *3206:D 0.000205242
2 *3041:X 0.000196658
3 *129:8 0.000401901
4 *3206:D *596:14 0.000240519
5 *3206:D *596:23 0
6 *129:8 *327:16 0
7 *129:8 *394:18 0.000235142
8 *129:8 *636:39 0
*RES
1 *3041:X *129:8 42.3278 
2 *129:8 *3206:D 42.0497 
*END

*D_NET *130 0.000633338
*CONN
*I *3207:D I *D sg13g2_dfrbpq_1
*I *3042:X O *D sg13g2_mux2_1
*CAP
1 *3207:D 0.00025236
2 *3042:X 0.00025236
3 *3207:D *3042:A1 0.000128618
4 *3207:D *3043:A0 0
5 *3207:D *3210:CLK 0
6 *3207:D *396:25 0
*RES
1 *3042:X *3207:D 42.4617 
*END

*D_NET *131 0.000220012
*CONN
*I *3208:D I *D sg13g2_dfrbpq_1
*I *3043:X O *D sg13g2_mux2_1
*CAP
1 *3208:D 0.000110006
2 *3043:X 0.000110006
*RES
1 *3043:X *3208:D 41.133 
*END

*D_NET *132 0.000195298
*CONN
*I *3209:D I *D sg13g2_dfrbpq_1
*I *3044:X O *D sg13g2_mux2_1
*CAP
1 *3209:D 9.76492e-05
2 *3044:X 9.76492e-05
3 *3209:D *3208:CLK 0
*RES
1 *3044:X *3209:D 41.133 
*END

*D_NET *133 0.000974397
*CONN
*I *3210:D I *D sg13g2_dfrbpq_1
*I *3045:X O *D sg13g2_mux2_1
*CAP
1 *3210:D 0.00014379
2 *3045:X 0.000222373
3 *133:8 0.000366163
4 *3210:D *596:23 0.000242071
5 *133:8 *325:16 0
6 *133:8 *399:14 0
7 *133:8 *596:38 0
*RES
1 *3045:X *133:8 42.0806 
2 *133:8 *3210:D 41.6171 
*END

*D_NET *134 0.000657717
*CONN
*I *3211:D I *D sg13g2_dfrbpq_1
*I *3046:X O *D sg13g2_mux2_1
*CAP
1 *3211:D 0.000207752
2 *3046:X 0.000207752
3 *3211:D *3628:clk1_phase_sel[0] 0.000242213
*RES
1 *3046:X *3211:D 42.4617 
*END

*D_NET *135 0.000445038
*CONN
*I *3212:D I *D sg13g2_dfrbpq_1
*I *3047:X O *D sg13g2_mux2_1
*CAP
1 *3212:D 0.000214791
2 *3047:X 0.000214791
3 *3212:D *3211:RESET_B 0
4 *3212:D *3628:clk1_phase_sel[0] 1.54556e-05
5 *3212:D *634:71 0
*RES
1 *3047:X *3212:D 42.0703 
*END

*D_NET *136 0.000291527
*CONN
*I *3213:D I *D sg13g2_dfrbpq_1
*I *3048:X O *D sg13g2_mux2_1
*CAP
1 *3213:D 0.000105722
2 *3048:X 0.000105722
3 *3213:D *400:38 8.00842e-05
*RES
1 *3048:X *3213:D 41.133 
*END

*D_NET *137 0.000295026
*CONN
*I *3214:D I *D sg13g2_dfrbpq_1
*I *3049:X O *D sg13g2_mux2_1
*CAP
1 *3214:D 0.000107471
2 *3049:X 0.000107471
3 *3214:D *3628:clk1_phase_sel[0] 8.00842e-05
*RES
1 *3049:X *3214:D 41.133 
*END

*D_NET *138 0.00120617
*CONN
*I *3215:D I *D sg13g2_dfrbpq_1
*I *3050:X O *D sg13g2_mux2_1
*CAP
1 *3215:D 0.000149618
2 *3050:X 0.000215506
3 *138:8 0.000365124
4 *3215:D *3628:f_clk1_divider[4] 0.000240463
5 *3215:D *652:33 0
6 *138:8 *3050:A0 0.000235457
*RES
1 *3050:X *138:8 42.3278 
2 *138:8 *3215:D 41.6171 
*END

*D_NET *139 0.00136739
*CONN
*I *3216:D I *D sg13g2_dfrbpq_1
*I *3051:X O *D sg13g2_mux2_1
*CAP
1 *3216:D 9.87692e-05
2 *3051:X 0.000219158
3 *139:10 0.000317928
4 *139:10 *3628:clk2_phase_sel[1] 4.77702e-05
5 *139:10 *270:44 0.00034162
6 *139:10 *641:89 0.000342145
*RES
1 *3051:X *139:10 42.8022 
2 *139:10 *3216:D 40.7519 
*END

*D_NET *140 0.000894401
*CONN
*I *3217:D I *D sg13g2_dfrbpq_1
*I *3052:X O *D sg13g2_mux2_1
*CAP
1 *3217:D 0.000151999
2 *3052:X 0.000174189
3 *140:8 0.000326188
4 *3217:D *3052:A0 0
5 *3217:D *3052:S 0.000242025
6 *140:8 *406:10 0
7 *140:8 *406:12 0
8 *140:8 *407:16 0
9 *140:8 *423:12 0
*RES
1 *3052:X *140:8 41.8334 
2 *140:8 *3217:D 41.6171 
*END

*D_NET *141 0.000384755
*CONN
*I *3218:D I *D sg13g2_dfrbpq_1
*I *3053:X O *D sg13g2_mux2_1
*CAP
1 *3218:D 0.000192378
2 *3053:X 0.000192378
3 *3218:D *3053:S 0
4 *3218:D *407:10 0
5 *3218:D *634:18 0
*RES
1 *3053:X *3218:D 41.6171 
*END

*D_NET *142 0.000656704
*CONN
*I *3219:D I *D sg13g2_dfrbpq_1
*I *3054:X O *D sg13g2_mux2_1
*CAP
1 *3219:D 0.000328352
2 *3054:X 0.000328352
*RES
1 *3054:X *3219:D 43.2033 
*END

*D_NET *143 0.000481715
*CONN
*I *3220:D I *D sg13g2_dfrbpq_1
*I *3055:X O *D sg13g2_mux2_1
*CAP
1 *3220:D 0.000240857
2 *3055:X 0.000240857
3 *3220:D *3055:A0 0
4 *3220:D *636:76 0
*RES
1 *3055:X *3220:D 41.5921 
*END

*D_NET *144 0.000701291
*CONN
*I *3221:D I *D sg13g2_dfrbpq_1
*I *3056:X O *D sg13g2_mux2_1
*CAP
1 *3221:D 0.000350646
2 *3056:X 0.000350646
3 *3221:D *3056:A1 0
4 *3221:D *410:23 0
*RES
1 *3056:X *3221:D 43.1312 
*END

*D_NET *145 0.00068162
*CONN
*I *3222:D I *D sg13g2_dfrbpq_1
*I *3057:X O *D sg13g2_mux2_1
*CAP
1 *3222:D 0.000220155
2 *3057:X 0.000220155
3 *3222:D *3628:bias 0.00024131
4 *3222:D *3628:clk0_phase_sel[2] 0
*RES
1 *3057:X *3222:D 42.4617 
*END

*D_NET *146 0.000649408
*CONN
*I *3223:D I *D sg13g2_dfrbpq_1
*I *3058:X O *D sg13g2_mux2_1
*CAP
1 *3223:D 0.000324704
2 *3058:X 0.000324704
3 *3223:D *3209:CLK 0
*RES
1 *3058:X *3223:D 42.9567 
*END

*D_NET *147 0.000511579
*CONN
*I *3224:D I *D sg13g2_dfrbpq_1
*I *3059:X O *D sg13g2_mux2_1
*CAP
1 *3224:D 5.48485e-05
2 *3059:X 2.4952e-05
3 *147:8 7.98004e-05
4 *3224:D *3195:CLK 1.54008e-05
5 *3224:D *320:68 8.00842e-05
6 *147:8 *481:33 0.000128247
7 *147:8 *638:99 0.000128247
*RES
1 *3059:X *147:8 40.5974 
2 *147:8 *3224:D 40.5356 
*END

*D_NET *148 0.0080315
*CONN
*I *3225:D I *D sg13g2_dfrbpq_1
*I *3060:X O *D sg13g2_mux2_1
*CAP
1 *3225:D 0
2 *3060:X 6.13086e-05
3 *148:12 0.000873953
4 *148:8 0.000935262
5 *148:8 *348:18 0.000112426
6 *148:12 *149:22 0
7 *148:12 *414:60 0.00313142
8 *148:12 *416:43 0.00208567
9 *148:12 *487:10 0.000645607
10 *148:12 *592:140 0
11 *148:12 *627:109 7.34778e-05
12 *75:22 *148:8 0.000112381
*RES
1 *3060:X *148:8 40.7519 
2 *148:8 *148:12 35.4294 
3 *148:12 *3225:D 20 
*END

*D_NET *149 0.00910084
*CONN
*I *3226:D I *D sg13g2_dfrbpq_1
*I *3061:X O *D sg13g2_mux2_1
*CAP
1 *3226:D 0
2 *3061:X 0.000633534
3 *149:22 0.0013483
4 *149:14 0.00198184
5 *149:14 *3369:RESET_B 0.00030506
6 *149:14 *318:48 0
7 *149:14 *318:62 0
8 *149:14 *417:40 0.000239995
9 *149:22 *259:8 7.54955e-05
10 *149:22 *414:60 0.00191656
11 *149:22 *417:28 0
12 *149:22 *487:10 0.00118619
13 *149:22 *522:30 0.00113335
14 *149:22 *627:109 0.000280512
15 *149:22 *706:26 0
16 *68:50 *149:14 0
17 *148:12 *149:22 0
*RES
1 *3061:X *149:14 45.1736 
2 *149:14 *149:22 37.0568 
3 *149:22 *3226:D 20 
*END

*D_NET *150 0.00904571
*CONN
*I *3227:D I *D sg13g2_dfrbpq_1
*I *3062:X O *D sg13g2_mux2_1
*CAP
1 *3227:D 0
2 *3062:X 0.001504
3 *150:22 0.000684622
4 *150:14 0.00218862
5 *150:14 *3556:A 8.00842e-05
6 *150:14 *164:14 0.00110907
7 *150:14 *310:28 0
8 *150:14 *436:71 0
9 *150:14 *591:12 6.99179e-05
10 *150:14 *600:102 0.0001122
11 *150:14 *701:69 0.000208592
12 *150:22 *246:80 7.51285e-05
13 *150:22 *246:90 0.00108775
14 *150:22 *323:43 0.000712253
15 *150:22 *487:10 0.00103178
16 *150:22 *692:53 0.000181694
*RES
1 *3062:X *150:14 34.1069 
2 *150:14 *150:22 30.4133 
3 *150:22 *3227:D 40 
*END

*D_NET *151 0.00524294
*CONN
*I *3228:D I *D sg13g2_dfrbpq_1
*I *3063:X O *D sg13g2_mux2_1
*CAP
1 *3228:D 0.000468065
2 *3063:X 0.000430763
3 *151:14 0.000864766
4 *151:8 0.000827464
5 *3228:D *418:29 0.000595832
6 *3228:D *418:37 0
7 *3228:D *497:17 0
8 *151:8 *3063:A0 0
9 *151:8 *288:41 0
10 *151:8 *309:12 0
11 *151:8 *418:37 0
12 *151:8 *591:97 0.000600813
13 *151:8 *704:58 0.00145523
14 *151:14 *432:37 0
15 *151:14 *525:20 0
*RES
1 *3063:X *151:8 46.7774 
2 *151:8 *151:14 42.9149 
3 *151:14 *3228:D 44.5629 
*END

*D_NET *152 0.000895652
*CONN
*I *3229:D I *D sg13g2_dfrbpq_1
*I *3064:X O *D sg13g2_mux2_1
*CAP
1 *3229:D 0.000312359
2 *3064:X 0.000312359
3 *3229:D *3065:A1 0.000127582
4 *3229:D *3066:A0 0
5 *3229:D *421:14 0
6 *3229:D *421:31 0.000143351
*RES
1 *3064:X *3229:D 43.2245 
*END

*D_NET *153 0.00381044
*CONN
*I *3230:D I *D sg13g2_dfrbpq_1
*I *3065:X O *D sg13g2_mux2_1
*CAP
1 *3230:D 0.000464248
2 *3065:X 0.000714763
3 *153:10 0.00117901
4 *3230:D *3228:CLK 1.54008e-05
5 *3230:D *164:14 0.000143351
6 *3230:D *708:33 0
7 *153:10 *352:22 0
8 *153:10 *591:12 0.00012651
9 *153:10 *600:102 0.000124862
10 *153:10 *701:73 0.000759627
11 *153:10 *701:127 0.000282661
*RES
1 *3065:X *153:10 47.004 
2 *153:10 *3230:D 44.017 
*END

*D_NET *154 0.00844557
*CONN
*I *3231:D I *D sg13g2_dfrbpq_1
*I *3066:X O *D sg13g2_mux2_1
*CAP
1 *3231:D 0
2 *3066:X 0
3 *154:12 0.000964522
4 *154:6 0.000964522
5 *154:12 *322:18 0.000240377
6 *154:12 *436:71 0.000234461
7 *154:12 *591:41 0.000336935
8 *154:12 *592:39 0
9 *154:12 *600:47 0.000495496
10 *154:12 *600:65 0.00103379
11 *154:12 *639:14 0.00224776
12 *154:12 *701:69 0.00192771
*RES
1 *3066:X *154:6 40 
2 *154:6 *154:12 37.2937 
3 *154:12 *3231:D 20 
*END

*D_NET *155 0.000680058
*CONN
*I *3232:D I *D sg13g2_dfrbpq_1
*I *3067:X O *D sg13g2_mux2_1
*CAP
1 *3232:D 5.68535e-05
2 *3067:X 0.000111951
3 *155:8 0.000168804
4 *155:8 *590:40 0.000342449
*RES
1 *3067:X *155:8 41.5862 
2 *155:8 *3232:D 40.5356 
*END

*D_NET *156 0.00221875
*CONN
*I *3233:D I *D sg13g2_dfrbpq_1
*I *3068:X O *D sg13g2_mux2_1
*CAP
1 *3233:D 0.000224574
2 *3068:X 0.000190821
3 *156:8 0.000415396
4 *3233:D *515:8 0.00011101
5 *3233:D *587:18 0.000338077
6 *156:8 *566:12 0.000598704
7 uo_out[7] *156:8 0.00034017
*RES
1 *3068:X *156:8 42.8222 
2 *156:8 *3233:D 42.266 
*END

*D_NET *157 0.00140285
*CONN
*I *3234:D I *D sg13g2_dfrbpq_1
*I *3069:X O *D sg13g2_mux2_1
*CAP
1 *3234:D 0
2 *3069:X 0.000497
3 *157:10 0.000497
4 *157:10 *3084:A1 0
5 *157:10 *3084:S 4.11629e-05
6 *157:10 *343:28 0.00024154
7 *157:10 *496:23 0
8 *157:10 *587:76 0.000126149
*RES
1 *3069:X *157:10 44.1921 
2 *157:10 *3234:D 40 
*END

*D_NET *158 0.00265447
*CONN
*I *3235:D I *D sg13g2_dfrbpq_1
*I *3070:X O *D sg13g2_mux2_1
*CAP
1 *3235:D 0.000778848
2 *3070:X 0.000778848
3 *3235:D *3248:D 7.08437e-05
4 *3235:D *172:10 0
5 *3235:D *246:16 0.000817219
6 *3235:D *616:105 0
7 *51:22 *3235:D 0.00020871
*RES
1 *3070:X *3235:D 47.725 
*END

*D_NET *159 0.000922047
*CONN
*I *3236:D I *D sg13g2_dfrbpq_1
*I *3071:X O *D sg13g2_mux2_1
*CAP
1 *3236:D 0.000171446
2 *3071:X 0.000171446
3 *3236:D *3237:D 9.55324e-05
4 *3236:D *649:10 0.000306897
5 *65:28 *3236:D 0.000176726
*RES
1 *3071:X *3236:D 42.0497 
*END

*D_NET *160 0.00219414
*CONN
*I *3237:D I *D sg13g2_dfrbpq_1
*I *3072:X O *D sg13g2_mux2_1
*CAP
1 *3237:D 0.000675297
2 *3072:X 0.000675297
3 *3237:D *3071:A1 0.000272435
4 *3237:D *428:32 1.11314e-05
5 *3237:D *429:20 0
6 *3237:D *518:12 9.54046e-05
7 *3237:D *649:10 0
8 *3236:D *3237:D 9.55324e-05
9 *65:28 *3237:D 0.000369042
*RES
1 *3072:X *3237:D 46.5302 
*END

*D_NET *161 0.00027196
*CONN
*I *3238:D I *D sg13g2_dfrbpq_1
*I *3073:X O *D sg13g2_mux2_1
*CAP
1 *3238:D 9.58666e-05
2 *3073:X 9.58666e-05
3 *3238:D *429:20 0
4 *3238:D *649:10 8.02267e-05
*RES
1 *3073:X *3238:D 41.133 
*END

*D_NET *162 0.00141592
*CONN
*I *3239:D I *D sg13g2_dfrbpq_1
*I *3074:X O *D sg13g2_mux2_1
*CAP
1 *3239:D 0
2 *3074:X 0.000591099
3 *162:12 0.000591099
4 *162:12 *3239:CLK 1.54008e-05
5 *162:12 *242:18 0
6 *162:12 *317:16 0.000218323
7 *162:12 *347:29 0
8 *162:12 *672:8 0
9 *31:28 *162:12 0
*RES
1 *3074:X *162:12 45.0367 
2 *162:12 *3239:D 40 
*END

*D_NET *163 0.00719787
*CONN
*I *3240:D I *D sg13g2_dfrbpq_1
*I *3075:X O *D sg13g2_mux2_1
*CAP
1 *3240:D 0
2 *3075:X 5.04747e-05
3 *163:22 0.000335406
4 *163:14 0.00228238
5 *163:8 0.00199745
6 *163:8 *248:16 7.99037e-05
7 *163:14 *256:68 1.4965e-05
8 *163:14 *432:16 0
9 *163:14 *533:40 0
10 *163:14 *624:40 0
11 *163:14 *703:56 4.63914e-05
12 *163:14 *703:66 0.000643652
13 *163:14 *704:34 0.000748084
14 *163:22 *703:56 7.30101e-05
15 *76:12 *163:22 0.00092615
16 *93:18 *163:14 0
*RES
1 *3075:X *163:8 40.5356 
2 *163:8 *163:14 37.9735 
3 *163:14 *163:22 44.6247 
4 *163:22 *3240:D 20 
*END

*D_NET *164 0.00449234
*CONN
*I *3241:D I *D sg13g2_dfrbpq_1
*I *3076:X O *D sg13g2_mux2_1
*CAP
1 *3241:D 0
2 *3076:X 0.00148075
3 *164:14 0.00148075
4 *164:14 *3062:A1 0.000133873
5 *164:14 *432:45 0
6 *164:14 *433:32 0
7 *164:14 *600:102 0.000144542
8 *3230:D *164:14 0.000143351
9 *150:14 *164:14 0.00110907
*RES
1 *3076:X *164:14 34.1573 
2 *164:14 *3241:D 20 
*END

*D_NET *165 0.000671388
*CONN
*I *3242:D I *D sg13g2_dfrbpq_1
*I *3077:X O *D sg13g2_mux2_1
*CAP
1 *3242:D 0.000250941
2 *3077:X 0.000250941
3 *3242:D *288:61 0
4 *3242:D *533:10 0.000169505
*RES
1 *3077:X *3242:D 42.7707 
*END

*D_NET *166 0.0021467
*CONN
*I *3243:D I *D sg13g2_dfrbpq_1
*I *3078:X O *D sg13g2_mux2_1
*CAP
1 *3243:D 0
2 *3078:X 0.000813028
3 *166:10 0.000813028
4 *166:10 *2933:A 0
5 *166:10 *3366:RESET_B 0.000157261
6 *166:10 *293:41 0.000128662
7 *166:10 *328:92 0
8 *166:10 *434:27 0
9 *166:10 *499:8 0
10 *166:10 *530:14 0
11 *166:10 *631:33 0.000234726
*RES
1 *3078:X *166:10 47.7765 
2 *166:10 *3243:D 40 
*END

*D_NET *167 0.00355097
*CONN
*I *3244:D I *D sg13g2_dfrbpq_1
*I *3079:X O *D sg13g2_mux2_1
*CAP
1 *3244:D 0.000218097
2 *3079:X 6.99978e-05
3 *167:16 0.00113574
4 *167:8 0.000987645
5 *3244:D *323:20 4.77425e-05
6 *167:8 *3065:S 0.000104166
7 *167:8 *344:91 0.00023041
8 *167:8 *591:27 7.49633e-05
9 *167:16 *247:24 0
10 *167:16 *263:28 0.000299062
11 *167:16 *385:34 7.33256e-05
12 *167:16 *433:16 0
13 *167:16 *623:18 7.30101e-05
14 *167:16 *629:18 0
15 *167:16 *692:53 0.000236808
16 *167:16 *699:51 0
*RES
1 *3079:X *167:8 41.0918 
2 *167:8 *167:16 47.3748 
3 *167:16 *3244:D 41.751 
*END

*D_NET *168 0.000281204
*CONN
*I *3245:D I *D sg13g2_dfrbpq_1
*I *3080:X O *D sg13g2_mux2_1
*CAP
1 *3245:D 0.000140602
2 *3080:X 0.000140602
3 *3245:D *3080:A0 0
4 *3245:D *3245:RESET_B 0
*RES
1 *3080:X *3245:D 41.6274 
*END

*D_NET *169 0.000204204
*CONN
*I *3246:D I *D sg13g2_dfrbpq_1
*I *3081:X O *D sg13g2_mux2_1
*CAP
1 *3246:D 0.000102102
2 *3081:X 0.000102102
3 *3246:D *3246:RESET_B 0
4 *3246:D *590:44 0
5 *3246:D *590:61 0
*RES
1 *3081:X *3246:D 41.133 
*END

*D_NET *170 0.00213449
*CONN
*I *3247:D I *D sg13g2_dfrbpq_1
*I *3082:X O *D sg13g2_mux2_1
*CAP
1 *3247:D 0
2 *3082:X 0.000825033
3 *170:10 0.000825033
4 *170:10 *171:8 0
5 *170:10 *422:56 0.000242213
6 *170:10 *424:31 0.000242213
7 *170:10 *587:39 0
8 uio_out[2] *170:10 0
9 uio_out[3] *170:10 0
*RES
1 *3082:X *170:10 47.4057 
2 *170:10 *3247:D 40 
*END

*D_NET *171 0.0039383
*CONN
*I *3248:D I *D sg13g2_dfrbpq_1
*I *3083:X O *D sg13g2_mux2_1
*CAP
1 *3248:D 0.00077215
2 *3083:X 0.000314452
3 *171:8 0.0010866
4 *3248:D *172:10 0.000249617
5 *3248:D *587:54 0.000143418
6 *171:8 *587:39 0.000387448
7 *171:8 *615:85 0.000287178
8 uio_out[2] *171:8 0
9 *3235:D *3248:D 7.08437e-05
10 *66:8 *3248:D 0.000626592
11 *170:10 *171:8 0
*RES
1 *3083:X *171:8 43.5638 
2 *171:8 *3248:D 47.4778 
*END

*D_NET *172 0.00454892
*CONN
*I *3249:D I *D sg13g2_dfrbpq_1
*I *3084:X O *D sg13g2_mux2_1
*CAP
1 *3249:D 7.17995e-05
2 *3084:X 0.000518299
3 *172:18 0.000668288
4 *172:10 0.00111479
5 *3249:D *649:10 0.000111876
6 *172:10 *427:32 0.000208592
7 *172:10 *494:15 0
8 *172:10 *516:22 0
9 *172:10 *595:83 0.00028467
10 *172:18 *3235:RESET_B 0
11 *172:18 *246:16 0.000822522
12 *172:18 *427:18 0.000305318
13 *172:18 *427:53 0.000178047
14 *172:18 *491:15 0
15 *172:18 *616:105 1.51e-05
16 *3235:D *172:10 0
17 *3248:D *172:10 0.000249617
18 *65:12 *3249:D 0
19 *65:28 *3249:D 0
*RES
1 *3084:X *172:10 45.1191 
2 *172:10 *172:18 46.3551 
3 *172:18 *3249:D 40.7519 
*END

*D_NET *173 0.00188938
*CONN
*I *3250:D I *D sg13g2_dfrbpq_1
*I *3085:X O *D sg13g2_mux2_1
*CAP
1 *3250:D 0.000209796
2 *3085:X 0.000581573
3 *173:8 0.000791369
4 *3250:D *649:10 0.000306639
5 *173:8 *3085:A1 0
6 *173:8 *239:24 0
7 *173:8 *298:77 0
8 *65:28 *3250:D 0
*RES
1 *3085:X *173:8 44.3054 
2 *173:8 *3250:D 42.0497 
*END

*D_NET *174 0.000424231
*CONN
*I *3251:D I *D sg13g2_dfrbpq_1
*I *3086:X O *D sg13g2_mux2_1
*CAP
1 *3251:D 0.000212115
2 *3086:X 0.000212115
3 *3251:D *3251:RESET_B 0
4 *3251:D *338:27 0
5 *3251:D *475:25 0
*RES
1 *3086:X *3251:D 42.2145 
*END

*D_NET *175 0.000716839
*CONN
*I *3252:D I *D sg13g2_dfrbpq_1
*I *3087:X O *D sg13g2_mux2_1
*CAP
1 *3252:D 0.00035842
2 *3087:X 0.00035842
3 *3252:D *3264:D 0
*RES
1 *3087:X *3252:D 43.4505 
*END

*D_NET *176 0.000528419
*CONN
*I *3253:D I *D sg13g2_dfrbpq_1
*I *3088:X O *D sg13g2_mux2_1
*CAP
1 *3253:D 0.000264209
2 *3088:X 0.000264209
3 *3253:D *3101:A0 0
4 *3253:D *3265:D 0
5 *3253:D *446:49 0
*RES
1 *3088:X *3253:D 42.3031 
*END

*D_NET *177 0.000255723
*CONN
*I *3254:D I *D sg13g2_dfrbpq_1
*I *3089:X O *D sg13g2_mux2_1
*CAP
1 *3254:D 0.000127862
2 *3089:X 0.000127862
*RES
1 *3089:X *3254:D 41.3802 
*END

*D_NET *178 0.000356734
*CONN
*I *3255:D I *D sg13g2_dfrbpq_1
*I *3090:X O *D sg13g2_mux2_1
*CAP
1 *3255:D 0.000138254
2 *3090:X 0.000138254
3 *3255:D *450:10 8.02267e-05
4 *3255:D *462:31 0
*RES
1 *3090:X *3255:D 41.6274 
*END

*D_NET *179 0.0012092
*CONN
*I *3256:D I *D sg13g2_dfrbpq_1
*I *3091:X O *D sg13g2_mux2_1
*CAP
1 *3256:D 0
2 *3091:X 0.000314852
3 *179:10 0.000314852
4 *179:10 *463:10 0
5 *179:10 *601:69 0
6 *179:10 *642:64 0.000236294
7 *179:10 *642:75 0.000343202
*RES
1 *3091:X *179:10 44.1921 
2 *179:10 *3256:D 40 
*END

*D_NET *180 0.000855104
*CONN
*I *3257:D I *D sg13g2_dfrbpq_1
*I *3092:X O *D sg13g2_mux2_1
*CAP
1 *3257:D 0.000336633
2 *3092:X 0.000336633
3 *3257:D *3257:RESET_B 0
4 *3257:D *450:30 0.000181839
*RES
1 *3092:X *3257:D 44.1921 
*END

*D_NET *181 0.000218132
*CONN
*I *3258:D I *D sg13g2_dfrbpq_1
*I *3093:X O *D sg13g2_mux2_1
*CAP
1 *3258:D 0.000109066
2 *3093:X 0.000109066
*RES
1 *3093:X *3258:D 41.133 
*END

*D_NET *182 0.000195755
*CONN
*I *3259:D I *D sg13g2_dfrbpq_1
*I *3094:X O *D sg13g2_mux2_1
*CAP
1 *3259:D 9.78774e-05
2 *3094:X 9.78774e-05
3 *3259:D *3094:A0 0
4 *3259:D *643:54 0
*RES
1 *3094:X *3259:D 41.133 
*END

*D_NET *183 0.000889432
*CONN
*I *3260:D I *D sg13g2_dfrbpq_1
*I *3095:X O *D sg13g2_mux2_1
*CAP
1 *3260:D 0
2 *3095:X 0.000437015
3 *183:10 0.000437015
4 *183:10 *3260:CLK 1.54008e-05
5 *183:10 *454:10 0
6 *183:10 *454:20 0
7 *183:10 *467:16 0
*RES
1 *3095:X *183:10 44.6865 
2 *183:10 *3260:D 40 
*END

*D_NET *184 0.0010759
*CONN
*I *3261:D I *D sg13g2_dfrbpq_1
*I *3096:X O *D sg13g2_mux2_1
*CAP
1 *3261:D 0
2 *3096:X 0.00047346
3 *184:10 0.00047346
4 *184:10 *3627:trim[9] 0
5 *184:10 *335:25 0
6 *184:10 *455:8 0.000128977
7 *184:10 *455:12 0
*RES
1 *3096:X *184:10 44.6247 
2 *184:10 *3261:D 40 
*END

*D_NET *185 0.00173736
*CONN
*I *3262:D I *D sg13g2_dfrbpq_1
*I *3097:X O *D sg13g2_mux2_1
*CAP
1 *3262:D 0
2 *3097:X 0.000529089
3 *185:10 0.000529089
4 *185:10 *285:12 0
5 *185:10 *336:49 0.000240634
6 *185:10 *336:58 1.54008e-05
7 *185:10 *341:36 0.000240634
8 *185:10 *469:14 0
9 *185:10 *645:32 0.000182517
*RES
1 *3097:X *185:10 45.1809 
2 *185:10 *3262:D 40 
*END

*D_NET *186 0.000208303
*CONN
*I *3263:D I *D sg13g2_dfrbpq_1
*I *3098:X O *D sg13g2_mux2_1
*CAP
1 *3263:D 0.000104151
2 *3098:X 0.000104151
*RES
1 *3098:X *3263:D 41.133 
*END

*D_NET *187 0.000625297
*CONN
*I *3264:D I *D sg13g2_dfrbpq_1
*I *3099:X O *D sg13g2_mux2_1
*CAP
1 *3264:D 0.000312649
2 *3099:X 0.000312649
3 *3252:D *3264:D 0
*RES
1 *3099:X *3264:D 42.6471 
*END

*D_NET *188 0.000184406
*CONN
*I *3265:D I *D sg13g2_dfrbpq_1
*I *3100:X O *D sg13g2_mux2_1
*CAP
1 *3265:D 9.22029e-05
2 *3100:X 9.22029e-05
3 *3265:D *3100:A1 0
4 *3265:D *3265:RESET_B 0
5 *3253:D *3265:D 0
*RES
1 *3100:X *3265:D 41.133 
*END

*D_NET *189 0.00241947
*CONN
*I *3266:D I *D sg13g2_dfrbpq_1
*I *3101:X O *D sg13g2_mux2_1
*CAP
1 *3266:D 0.000219828
2 *3101:X 0.00024821
3 *189:8 0.000468038
4 *3266:D *3254:RESET_B 0.000240701
5 *189:8 *3089:A0 0.000128334
6 *189:8 *3089:A1 0.000505169
7 *189:8 *341:47 0
8 *189:8 *446:27 0.000426676
9 *189:8 *604:77 0.000182517
*RES
1 *3101:X *189:8 44.0582 
2 *189:8 *3266:D 42.0497 
*END

*D_NET *190 0.000562423
*CONN
*I *3267:D I *D sg13g2_dfrbpq_1
*I *3102:X O *D sg13g2_mux2_1
*CAP
1 *3267:D 0.000273511
2 *3102:X 0.000273511
3 *3267:D *3102:A1 0
4 *3267:D *3255:RESET_B 1.54008e-05
*RES
1 *3102:X *3267:D 42.9973 
*END

*D_NET *191 0.00128124
*CONN
*I *3268:D I *D sg13g2_dfrbpq_1
*I *3103:X O *D sg13g2_mux2_1
*CAP
1 *3268:D 0.000406294
2 *3103:X 0.000406294
3 *3268:D *3268:RESET_B 0
4 *3268:D *601:54 0.000468653
*RES
1 *3103:X *3268:D 44.7174 
*END

*D_NET *192 0.00155725
*CONN
*I *3269:D I *D sg13g2_dfrbpq_1
*I *3104:X O *D sg13g2_mux2_1
*CAP
1 *3269:D 0
2 *3104:X 0.000289133
3 *192:10 0.000289133
4 *192:10 *3627:trim[6] 0.000242213
5 *192:10 *464:12 0
6 *192:10 *602:65 0.000182524
7 *192:10 *642:53 0.000554249
*RES
1 *3104:X *192:10 44.1921 
2 *192:10 *3269:D 40 
*END

*D_NET *193 0.0020617
*CONN
*I *3270:D I *D sg13g2_dfrbpq_1
*I *3105:X O *D sg13g2_mux2_1
*CAP
1 *3270:D 0.000221006
2 *3105:X 0.000288721
3 *193:10 0.000509727
4 *3270:D *3258:CLK 0.000337824
5 *3270:D *3627:trim[20] 0
6 *3270:D *466:12 0
7 *193:10 *3105:A1 0
8 *193:10 *3106:A0 0.000181694
9 *193:10 *464:24 0
10 *193:10 *465:16 0.000181608
11 *193:10 *601:39 0
12 *193:10 *602:65 0.000341119
*RES
1 *3105:X *193:10 43.8522 
2 *193:10 *3270:D 42.266 
*END

*D_NET *194 0.000442514
*CONN
*I *3271:D I *D sg13g2_dfrbpq_1
*I *3106:X O *D sg13g2_mux2_1
*CAP
1 *3271:D 0.000221257
2 *3106:X 0.000221257
3 *3271:D *3271:RESET_B 0
*RES
1 *3106:X *3271:D 42.2145 
*END

*D_NET *195 0.000935519
*CONN
*I *3272:D I *D sg13g2_dfrbpq_1
*I *3107:X O *D sg13g2_mux2_1
*CAP
1 *3272:D 0.000181822
2 *3107:X 0.000262066
3 *195:8 0.000443888
4 *3272:D *602:22 0
5 *3272:D *643:33 4.77425e-05
6 *195:8 *602:36 0
7 *195:8 *643:48 0
*RES
1 *3107:X *195:8 42.8222 
2 *195:8 *3272:D 41.6171 
*END

*D_NET *196 0.00109477
*CONN
*I *3273:D I *D sg13g2_dfrbpq_1
*I *3108:X O *D sg13g2_mux2_1
*CAP
1 *3273:D 0.000314981
2 *3108:X 0.000314981
3 *3273:D *3108:S 4.79124e-05
4 *3273:D *3627:trim[21] 0.000160359
5 *3273:D *454:20 0.000144441
6 *3273:D *467:16 0.000112099
*RES
1 *3108:X *3273:D 43.7389 
*END

*D_NET *197 0.00134249
*CONN
*I *3274:D I *D sg13g2_dfrbpq_1
*I *3109:X O *D sg13g2_mux2_1
*CAP
1 *3274:D 0.000631385
2 *3109:X 0.000631385
3 *3274:D *3274:RESET_B 0
4 *3274:D *3275:D 7.97219e-05
5 *3274:D *3627:sel[3] 0
6 *3274:D *444:35 0
7 *3274:D *644:84 0
*RES
1 *3109:X *3274:D 46.6332 
*END

*D_NET *198 0.000272048
*CONN
*I *3275:D I *D sg13g2_dfrbpq_1
*I *3110:X O *D sg13g2_mux2_1
*CAP
1 *3275:D 9.61631e-05
2 *3110:X 9.61631e-05
3 *3275:D *444:35 0
4 *3274:D *3275:D 7.97219e-05
*RES
1 *3110:X *3275:D 41.133 
*END

*D_NET *199 0.000477366
*CONN
*I *3276:D I *D sg13g2_dfrbpq_1
*I *3111:X O *D sg13g2_mux2_1
*CAP
1 *3276:D 0.000238683
2 *3111:X 0.000238683
3 *3276:D *444:35 0
4 *3276:D *644:63 0
*RES
1 *3111:X *3276:D 41.9673 
*END

*D_NET *200 0.000575227
*CONN
*I *3277:D I *D sg13g2_dfrbpq_1
*I *3112:X O *D sg13g2_mux2_1
*CAP
1 *3277:D 0.000260878
2 *3112:X 0.000260878
3 *3277:D *3111:A0 3.12952e-05
4 *3277:D *444:35 2.21754e-05
*RES
1 *3112:X *3277:D 42.6213 
*END

*D_NET *201 0.0002216
*CONN
*I *3278:D I *D sg13g2_dfrbpq_1
*I *3113:X O *D sg13g2_mux2_1
*CAP
1 *3278:D 0.0001108
2 *3113:X 0.0001108
3 *3278:D *474:16 0
4 *3278:D *647:70 0
*RES
1 *3113:X *3278:D 41.133 
*END

*D_NET *202 0.000722981
*CONN
*I *3279:D I *D sg13g2_dfrbpq_1
*I *3114:X O *D sg13g2_mux2_1
*CAP
1 *3279:D 0
2 *3114:X 0.000259619
3 *202:10 0.000259619
4 *202:10 *338:27 0
5 *202:10 *475:8 7.51285e-05
6 *202:10 *475:14 0.000128614
7 *202:10 *644:18 0
*RES
1 *3114:X *202:10 42.9098 
2 *202:10 *3279:D 40 
*END

*D_NET *203 0.000216709
*CONN
*I *3280:D I *D sg13g2_dfrbpq_1
*I *3115:X O *D sg13g2_mux2_1
*CAP
1 *3280:D 0.000108354
2 *3115:X 0.000108354
*RES
1 *3115:X *3280:D 41.133 
*END

*D_NET *204 0.00113528
*CONN
*I *3281:D I *D sg13g2_dfrbpq_1
*I *3116:X O *D sg13g2_mux2_1
*CAP
1 *3281:D 3.24759e-05
2 *3116:X 0.000281432
3 *204:10 0.000313908
4 *204:10 *3116:S 0
5 *204:10 *3281:RESET_B 0.000272391
6 *204:10 *324:12 0.000235075
*RES
1 *3116:X *204:10 42.9252 
2 *204:10 *3281:D 40.3193 
*END

*D_NET *205 0.00226545
*CONN
*I *3282:D I *D sg13g2_dfrbpq_1
*I *3117:X O *D sg13g2_mux2_1
*CAP
1 *3282:D 0.000541883
2 *3117:X 0.000178603
3 *205:8 0.000720486
4 *3282:D *3118:A0 0
5 *3282:D *3118:S 0
6 *3282:D *635:66 0.000824476
7 *205:8 *3117:A0 0
*RES
1 *3117:X *205:8 41.5862 
2 *205:8 *3282:D 46.1079 
*END

*D_NET *206 0.000199561
*CONN
*I *3283:D I *D sg13g2_dfrbpq_1
*I *3118:X O *D sg13g2_mux2_1
*CAP
1 *3283:D 9.97804e-05
2 *3118:X 9.97804e-05
3 *3283:D *3282:CLK 0
4 *3283:D *635:66 0
*RES
1 *3118:X *3283:D 41.133 
*END

*D_NET *207 0.00113856
*CONN
*I *3284:D I *D sg13g2_dfrbpq_1
*I *3119:X O *D sg13g2_mux2_1
*CAP
1 *3284:D 0.00014379
2 *3119:X 0.000304454
3 *207:8 0.000448245
4 *3284:D *3209:CLK 0.000242071
5 *207:8 *394:18 0
6 *207:8 *635:33 0
*RES
1 *3119:X *207:8 42.8222 
2 *207:8 *3284:D 41.6171 
*END

*D_NET *208 0.0013212
*CONN
*I *3285:D I *D sg13g2_dfrbpq_1
*I *3120:X O *D sg13g2_mux2_1
*CAP
1 *3285:D 0.000196351
2 *3120:X 0.000186918
3 *208:8 0.000383269
4 *3285:D *3502:A 0
5 *3285:D *327:61 0
6 *3285:D *512:8 0
7 *208:8 *359:27 0.000554665
8 *208:8 *536:18 0
*RES
1 *3120:X *208:8 42.575 
2 *208:8 *3285:D 41.6171 
*END

*D_NET *209 0.000276733
*CONN
*I *3286:D I *D sg13g2_dfrbpq_1
*I *3121:X O *D sg13g2_mux2_1
*CAP
1 *3286:D 9.83246e-05
2 *3121:X 9.83246e-05
3 *3286:D *359:19 8.00842e-05
*RES
1 *3121:X *3286:D 41.133 
*END

*D_NET *210 0.000615696
*CONN
*I *3287:D I *D sg13g2_dfrbpq_1
*I *3122:X O *D sg13g2_mux2_1
*CAP
1 *3287:D 0.000186741
2 *3122:X 0.000186741
3 *3287:D *3122:A1 0.000242213
*RES
1 *3122:X *3287:D 42.2145 
*END

*D_NET *211 0.00104095
*CONN
*I *3288:D I *D sg13g2_dfrbpq_1
*I *3123:X O *D sg13g2_mux2_1
*CAP
1 *3288:D 0.000520476
2 *3123:X 0.000520476
3 *3288:D *3288:RESET_B 0
4 *3288:D *3314:RESET_B 0
5 *3288:D *359:27 0
6 *3288:D *536:18 0
*RES
1 *3123:X *3288:D 45.0264 
*END

*D_NET *212 0.00109832
*CONN
*I *3289:D I *D sg13g2_dfrbpq_1
*I *3124:X O *D sg13g2_mux2_1
*CAP
1 *3289:D 0
2 *3124:X 0.000378099
3 *212:10 0.000378099
4 *212:10 *3124:A1 0
5 *212:10 *324:14 0
6 *212:10 *325:18 0.000342122
7 *212:10 *633:38 0
8 *56:12 *212:10 0
*RES
1 *3124:X *212:10 43.6359 
2 *212:10 *3289:D 40 
*END

*D_NET *213 0.00092392
*CONN
*I *3290:D I *D sg13g2_dfrbpq_1
*I *3125:X O *D sg13g2_mux2_1
*CAP
1 *3290:D 0.000373505
2 *3125:X 0.000373505
3 *3290:D *3125:S 0
4 *3290:D *619:23 0.000176909
*RES
1 *3125:X *3290:D 44.0891 
*END

*D_NET *214 0.00141729
*CONN
*I *3291:D I *D sg13g2_dfrbpq_1
*I *3126:X O *D sg13g2_mux2_1
*CAP
1 *3291:D 8.33298e-05
2 *3126:X 0.000320725
3 *214:10 0.000404055
4 *3291:D *3133:S 0
5 *214:10 *328:56 0
6 *214:10 *622:39 0.000609183
*RES
1 *3126:X *214:10 43.7904 
2 *214:10 *3291:D 40.7519 
*END

*D_NET *215 0.00301882
*CONN
*I *3292:D I *D sg13g2_dfrbpq_1
*I *3127:X O *D sg13g2_mux2_1
*CAP
1 *3292:D 0.000402032
2 *3127:X 0.000514714
3 *215:12 0.000916746
4 *3292:D *3528:A 1.54285e-05
5 *215:12 *3127:A0 0.000179389
6 *215:12 *366:60 7.00333e-05
7 *215:12 *376:34 0
8 *215:12 *512:30 0
9 *215:12 *570:14 0
10 uo_out[4] *215:12 0.00038822
11 *7:25 *215:12 0
12 *25:26 *3292:D 0.000532257
13 *26:18 *3292:D 0
14 *30:16 *215:12 0
*RES
1 *3127:X *215:12 44.7277 
2 *215:12 *3292:D 43.914 
*END

*D_NET *216 0.00217478
*CONN
*I *3293:D I *D sg13g2_dfrbpq_1
*I *3128:X O *D sg13g2_mux2_1
*CAP
1 *3293:D 0.00013309
2 *3128:X 0.00029319
3 *216:8 0.000426279
4 *3293:D *2945:B 0.000209641
5 *3293:D *606:48 0.000242396
6 *216:8 *561:36 0.000177583
7 *216:8 *595:91 0.000124547
8 *216:8 *609:30 0
9 *216:8 *616:58 0.000494
10 uio_out[7] *216:8 7.40536e-05
*RES
1 *3128:X *216:8 43.3166 
2 *216:8 *3293:D 41.6171 
*END

*D_NET *217 0.00136024
*CONN
*I *3294:D I *D sg13g2_dfrbpq_1
*I *3129:X O *D sg13g2_mux2_1
*CAP
1 *3294:D 6.09819e-05
2 *3129:X 0.000443215
3 *217:12 0.000504197
4 *3294:D *3166:A 0.000112641
5 *3294:D *558:24 0.000111901
6 *217:12 *3129:A1 0
7 *217:12 *3333:D 0.000111876
8 *217:12 *344:55 0
9 *217:12 *365:22 0
10 *217:12 *582:151 1.54285e-05
11 uio_out[5] *217:12 0
*RES
1 *3129:X *217:12 43.8316 
2 *217:12 *3294:D 40.7519 
*END

*D_NET *218 0.000286372
*CONN
*I *3295:D I *D sg13g2_dfrbpq_1
*I *3130:X O *D sg13g2_mux2_1
*CAP
1 *3295:D 0.000103144
2 *3130:X 0.000103144
3 *29:24 *3295:D 8.00842e-05
*RES
1 *3130:X *3295:D 41.133 
*END

*D_NET *219 0.000694313
*CONN
*I *3296:D I *D sg13g2_dfrbpq_1
*I *3131:X O *D sg13g2_mux2_1
*CAP
1 *3296:D 0.000226955
2 *3131:X 0.000226955
3 *3296:D *612:97 0.000240404
4 *48:18 *3296:D 0
*RES
1 *3131:X *3296:D 42.2145 
*END

*D_NET *220 0.000898342
*CONN
*I *3297:D I *D sg13g2_dfrbpq_1
*I *3132:X O *D sg13g2_mux2_1
*CAP
1 *3297:D 5.61002e-05
2 *3132:X 0.000155659
3 *220:8 0.00021176
4 *3297:D *582:55 8.00842e-05
5 *220:8 *281:20 0.000394738
6 *220:8 *300:119 0
*RES
1 *3132:X *220:8 41.8334 
2 *220:8 *3297:D 40.5356 
*END

*D_NET *221 0.000864646
*CONN
*I *3298:D I *D sg13g2_dfrbpq_1
*I *3133:X O *D sg13g2_mux2_1
*CAP
1 *3298:D 0.000359868
2 *3133:X 0.000359868
3 *3298:D *2983:A0 0
4 *3298:D *2983:A1 0
5 *3298:D *3291:RESET_B 0
6 *3298:D *325:28 0
7 *3298:D *582:59 6.4771e-05
8 *3298:D *582:69 8.01392e-05
*RES
1 *3133:X *3298:D 43.9552 
*END

*D_NET *222 0.000815947
*CONN
*I *3299:D I *D sg13g2_dfrbpq_1
*I *3134:X O *D sg13g2_mux2_1
*CAP
1 *3299:D 0.000271566
2 *3134:X 0.000271566
3 *3299:D *3134:A0 0.000272814
4 *3299:D *3134:S 0
5 *3299:D *3299:RESET_B 0
*RES
1 *3134:X *3299:D 43.2033 
*END

*D_NET *223 0.000449885
*CONN
*I *3300:D I *D sg13g2_dfrbpq_1
*I *3135:X O *D sg13g2_mux2_1
*CAP
1 *3300:D 0.000224942
2 *3135:X 0.000224942
3 *3300:D *374:10 0
*RES
1 *3135:X *3300:D 42.4617 
*END

*D_NET *224 0.000819961
*CONN
*I *3301:D I *D sg13g2_dfrbpq_1
*I *3136:X O *D sg13g2_mux2_1
*CAP
1 *3301:D 0.000354442
2 *3136:X 0.000354442
3 *3301:D *3136:A1 0.000111076
4 *3301:D *3579:A 0
5 *3301:D *372:10 0
*RES
1 *3136:X *3301:D 44.1509 
*END

*D_NET *225 0.00230408
*CONN
*I *3302:D I *D sg13g2_dfrbpq_1
*I *3137:X O *D sg13g2_mux2_1
*CAP
1 *3302:D 6.20796e-05
2 *3137:X 0.000194678
3 *225:8 0.000256757
4 *225:8 *3134:S 0.000394151
5 *225:8 *3137:A1 0.00034162
6 *225:8 *375:8 0.000585841
7 *225:8 *582:75 0.000287672
8 *225:8 *589:27 0.000181279
*RES
1 *3137:X *225:8 44.3054 
2 *225:8 *3302:D 40.5356 
*END

*D_NET *226 0.00320384
*CONN
*I *3303:D I *D sg13g2_dfrbpq_1
*I *3138:X O *D sg13g2_mux2_1
*CAP
1 *3303:D 0.000200437
2 *3138:X 0.000801809
3 *226:10 0.00100225
4 *3303:D *589:14 0.000272718
5 *3303:D *621:22 0
6 *226:10 *3138:A1 0
7 *226:10 *3299:RESET_B 0
8 *226:10 *328:71 0.000926632
9 *226:10 *354:12 0
10 *226:10 *622:39 0
11 *226:10 *622:52 0
*RES
1 *3138:X *226:10 48.0855 
2 *226:10 *3303:D 41.8334 
*END

*D_NET *227 0.00273582
*CONN
*I *3304:D I *D sg13g2_dfrbpq_1
*I *3139:X O *D sg13g2_mux2_1
*CAP
1 *3304:D 0.000308212
2 *3139:X 0.000367895
3 *227:8 0.000676107
4 *3304:D *2954:A 0.000144055
5 *3304:D *558:42 0.00017622
6 *3304:D *570:8 0
7 *227:8 *515:14 0
8 *227:8 *586:106 0
9 uo_out[7] *227:8 0.000799018
10 *25:26 *3304:D 0.000264317
*RES
1 *3139:X *227:8 43.811 
2 *227:8 *3304:D 43.1312 
*END

*D_NET *228 0.00184456
*CONN
*I *3305:D I *D sg13g2_dfrbpq_1
*I *3140:X O *D sg13g2_mux2_1
*CAP
1 *3305:D 0.000188813
2 *3140:X 0.000507414
3 *228:8 0.000696227
4 *3305:D *514:42 0.000144998
5 *3305:D *515:22 0
6 *228:8 *3333:D 0
7 *228:8 *581:16 0
8 uio_out[3] *228:8 0
9 *26:18 *3305:D 0.000307107
*RES
1 *3140:X *228:8 43.5638 
2 *228:8 *3305:D 42.0497 
*END

*D_NET *229 0.0012098
*CONN
*I *3306:D I *D sg13g2_dfrbpq_1
*I *3141:X O *D sg13g2_mux2_1
*CAP
1 *3306:D 4.17906e-05
2 *3141:X 0.000307089
3 *229:10 0.00034888
4 *3306:D *3141:A0 8.02269e-05
5 *3306:D *514:30 8.03692e-05
6 *229:10 *3306:RESET_B 0.000175721
7 *229:10 *377:31 0.000175721
*RES
1 *3141:X *229:10 42.5235 
2 *229:10 *3306:D 40.5356 
*END

*D_NET *230 0.0012192
*CONN
*I *3307:D I *D sg13g2_dfrbpq_1
*I *3142:X O *D sg13g2_mux2_1
*CAP
1 *3307:D 6.76102e-05
2 *3142:X 0.00034145
3 *230:10 0.000409061
4 *3307:D *3307:RESET_B 0
5 *230:10 *3142:A1 0.000181694
6 *230:10 *3143:A0 0
7 *230:10 *3336:D 0.000144169
8 *230:10 *537:8 7.52158e-05
9 *230:10 *585:48 0
*RES
1 *3142:X *230:10 44.2848 
2 *230:10 *3307:D 40.7519 
*END

*D_NET *231 0.000187639
*CONN
*I *3308:D I *D sg13g2_dfrbpq_1
*I *3143:X O *D sg13g2_mux2_1
*CAP
1 *3308:D 9.38197e-05
2 *3143:X 9.38197e-05
3 *3308:D *3143:A0 0
4 *3308:D *611:14 0
*RES
1 *3143:X *3308:D 41.133 
*END

*D_NET *232 0.000831386
*CONN
*I *3309:D I *D sg13g2_dfrbpq_1
*I *3144:X O *D sg13g2_mux2_1
*CAP
1 *3309:D 0.000295447
2 *3144:X 0.000295447
3 *3309:D *3144:A0 0
4 *3309:D *3144:S 0
5 *3309:D *612:107 0.000240492
*RES
1 *3144:X *3309:D 42.6471 
*END

*D_NET *233 0.000678101
*CONN
*I *3310:D I *D sg13g2_dfrbpq_1
*I *3145:X O *D sg13g2_mux2_1
*CAP
1 *3310:D 0.000314404
2 *3145:X 0.000314404
3 *3310:D *3145:S 4.92926e-05
4 *3310:D *3324:D 0
5 *3310:D *3338:D 0
6 *3310:D *383:10 0
7 *3310:D *613:20 0
*RES
1 *3145:X *3310:D 42.9093 
*END

*D_NET *234 0.00452344
*CONN
*I *3311:D I *D sg13g2_dfrbpq_1
*I *3146:X O *D sg13g2_a21o_1
*CAP
1 *3311:D 0.000491495
2 *3146:X 0.000327742
3 *234:8 0.000819237
4 *3311:D *3184:RESET_B 0.000286042
5 *3311:D *3361:CLK 1.54008e-05
6 *3311:D *319:14 0.00160483
7 *3311:D *508:6 0
8 *3311:D *544:22 0
9 *3311:D *544:24 0
10 *3311:D *627:84 0.000738692
11 *234:8 *3146:A1 0
12 *234:8 *311:25 0.000239996
13 *103:10 *234:8 0
*RES
1 *3146:X *234:8 42.9149 
2 *234:8 *3311:D 47.8383 
*END

*D_NET *235 0.0150569
*CONN
*I *3008:A1 I *D sg13g2_o21ai_1
*I *2926:Y O *D sg13g2_inv_1
*CAP
1 *3008:A1 0
2 *2926:Y 0.000847094
3 *235:34 0.0013781
4 *235:28 0.00222519
5 *235:28 *3242:CLK 0.000512552
6 *235:28 *288:61 0
7 *235:28 *319:81 0.00011101
8 *235:28 *420:14 0.000112426
9 *235:28 *420:44 0.000458996
10 *235:28 *533:10 0
11 *235:28 *583:8 4.78772e-05
12 *235:28 *592:20 0.000171036
13 *235:28 *701:127 4.75166e-05
14 *235:34 *3008:B1 6.16032e-06
15 *235:34 *3227:RESET_B 0.000127505
16 *235:34 *308:27 0.000390421
17 *235:34 *323:10 0
18 *235:34 *530:14 0.00378372
19 *235:34 *533:16 0.0020855
20 *235:34 *630:26 0.000126275
21 *235:34 *630:63 0.000371791
22 *235:34 *666:43 0
23 *235:34 *692:53 0.00225378
*RES
1 *2926:Y *235:28 49.3215 
2 *235:28 *235:34 44.8333 
3 *235:34 *3008:A1 20 
*END

*D_NET *236 0.0232575
*CONN
*I *3008:B1 I *D sg13g2_o21ai_1
*I *3013:A I *D sg13g2_nor3_1
*I *2927:Y O *D sg13g2_inv_1
*CAP
1 *3008:B1 0.00105806
2 *3013:A 6.276e-05
3 *2927:Y 0.000751731
4 *236:61 0.00116159
5 *236:44 0.00127522
6 *236:40 0.00288791
7 *236:34 0.00258395
8 *236:32 0.00100302
9 *236:26 0.000494772
10 *236:20 0.00104845
11 *3008:B1 *3009:B 0
12 *3008:B1 *3240:CLK 0
13 *3008:B1 *264:10 0.000121622
14 *3008:B1 *417:79 0.000754404
15 *3008:B1 *627:28 0
16 *3008:B1 *704:58 0
17 *236:20 *2927:A 7.92542e-05
18 *236:20 *2928:A 0
19 *236:20 *247:24 0.000288963
20 *236:20 *344:91 0.000342275
21 *236:20 *346:75 0
22 *236:20 *583:195 0.00044129
23 *236:20 *627:16 7.92542e-05
24 *236:20 *627:28 0.00134919
25 *236:20 *704:58 1.58838e-05
26 *236:26 *257:22 0.00126325
27 *236:26 *262:39 0.000778471
28 *236:32 *256:91 0
29 *236:32 *300:22 0.0003057
30 *236:34 *262:39 0
31 *236:40 *257:18 0
32 *236:40 *262:20 0
33 *236:40 *346:10 0.000210114
34 *236:40 *626:24 0
35 *236:44 *259:36 0
36 *236:44 *266:18 0.0010864
37 *236:44 *311:25 0.00151134
38 *236:44 *706:10 2.14736e-05
39 *8:9 *236:44 0
40 *75:8 *236:44 0
41 *104:16 *236:34 0
42 *104:16 *236:40 0
43 *106:12 *3013:A 1.54285e-05
44 *106:16 *236:44 0.00225953
45 *235:34 *3008:B1 6.16032e-06
*RES
1 *2927:Y *236:20 49.9601 
2 *236:20 *236:26 45.7886 
3 *236:26 *236:32 42.0497 
4 *236:32 *236:34 10.4854 
5 *236:34 *236:40 37.3246 
6 *236:40 *236:44 37.1598 
7 *236:44 *3013:A 40.6695 
8 *236:34 *236:61 40.9682 
9 *236:61 *3008:B1 49.8571 
*END

*D_NET *237 0.00276251
*CONN
*I *3014:A1 I *D sg13g2_a21oi_1
*I *2928:Y O *D sg13g2_inv_1
*CAP
1 *3014:A1 6.96852e-05
2 *2928:Y 0.000751293
3 *237:10 0.000820978
4 *3014:A1 *3014:B1 0.000112426
5 *3014:A1 *265:30 1.54008e-05
6 *237:10 *2928:A 0.000144843
7 *237:10 *256:91 0.000181298
8 *237:10 *260:55 0.00028766
9 *237:10 *291:58 0
10 *237:10 *346:50 0
11 *237:10 *346:54 0.0001447
12 *237:10 *631:65 0.000234224
13 *237:10 *632:14 0
14 *17:21 *237:10 0
15 *20:27 *237:10 0
*RES
1 *2928:Y *237:10 47.9928 
2 *237:10 *3014:A1 40.7519 
*END

*D_NET *238 0.0128015
*CONN
*I *2972:A1 I *D sg13g2_o21ai_1
*I *2930:Y O *D sg13g2_inv_1
*CAP
1 *2972:A1 0
2 *2930:Y 0.000452241
3 *238:30 0.000157675
4 *238:22 0.000623407
5 *238:14 0.00409703
6 *238:12 0.0036313
7 *238:10 0.000452241
8 *238:10 *2930:A 4.78769e-05
9 *238:10 *3333:D 0
10 *238:10 *514:42 4.75425e-05
11 *238:10 *581:16 0.000542373
12 *238:14 *300:30 0.00204444
13 *238:14 *560:22 0
14 *238:14 *573:22 0
15 *238:14 *582:141 0
16 *238:22 *292:10 0
17 *238:22 *554:22 0.000333978
18 *238:22 *667:8 0
19 *238:30 *246:28 4.77425e-05
20 *238:30 *292:10 0
21 *238:30 *348:55 0.000182051
22 *238:30 *697:18 2.17504e-05
23 *238:30 *697:28 4.68848e-05
24 uio_out[2] *238:10 0
25 *29:32 *238:14 0
26 *89:8 *238:10 7.30101e-05
27 *89:14 *238:14 0
28 *89:18 *238:14 0
*RES
1 *2930:Y *238:10 44.3775 
2 *238:10 *238:12 20 
3 *238:12 *238:14 39.6859 
4 *238:14 *238:22 44.1921 
5 *238:22 *238:30 41.8128 
6 *238:30 *2972:A1 20 
*END

*D_NET *239 0.013714
*CONN
*I *2992:A1 I *D sg13g2_o21ai_1
*I *2931:Y O *D sg13g2_inv_1
*CAP
1 *2992:A1 4.37077e-05
2 *2931:Y 0.00057291
3 *239:30 0.00254371
4 *239:24 0.00314522
5 *239:20 0.00121813
6 *2992:A1 *2992:A2 4.77425e-05
7 *2992:A1 *3603:A 8.00842e-05
8 *2992:A1 *245:47 3.23417e-05
9 *239:20 *3072:S 0.000304584
10 *239:20 *583:87 0.000175761
11 *239:20 *677:12 0
12 *239:24 *3085:A0 0.000233676
13 *239:24 *345:26 0
14 *239:24 *427:53 0
15 *239:24 *491:15 0
16 *239:24 *695:16 0
17 *239:30 *3309:CLK 0
18 *239:30 *3471:A 0
19 *239:30 *3603:A 0.000854982
20 *239:30 *339:16 0
21 *239:30 *345:26 0.000112541
22 *239:30 *423:36 0
23 *239:30 *427:53 0
24 *239:30 *492:31 0
25 *239:30 *587:39 8.00842e-05
26 *239:30 *588:38 0.00058786
27 *239:30 *588:65 0.000791489
28 *239:30 *590:16 0.00173021
29 *239:30 *590:18 0
30 *239:30 *612:12 0.000111114
31 *239:30 *618:18 0.000499949
32 *3341:CLK *239:20 0
33 *51:12 *239:24 0.000547875
34 *65:12 *239:24 0
35 *65:28 *239:20 0
36 *173:8 *239:24 0
*RES
1 *2931:Y *239:20 45.9843 
2 *239:20 *239:24 26.5302 
3 *239:24 *239:30 46.0075 
4 *239:30 *2992:A1 40.5356 
*END

*D_NET *240 0.0370394
*CONN
*I *2994:A1 I *D sg13g2_o21ai_1
*I *2932:Y O *D sg13g2_inv_1
*CAP
1 *2994:A1 0
2 *2932:Y 0
3 *240:26 0
4 *240:22 0.00594774
5 *240:20 0.00594774
6 *240:18 0.00356335
7 *240:12 0.00377349
8 *240:6 0.000210148
9 *240:12 *241:10 0
10 *240:18 *273:24 0.00431629
11 *240:18 *356:43 0
12 *240:18 *385:44 0.00242657
13 *240:18 *522:20 0
14 *240:18 *583:32 0
15 *240:18 *600:77 0
16 *240:18 *628:26 0
17 *240:18 *699:45 2.22341e-05
18 *240:18 *699:51 0
19 *240:22 *343:20 0
20 *240:22 *346:10 0
21 *240:22 *385:64 0
22 *240:22 *417:28 0
23 *240:22 *436:30 0.00960294
24 *35:18 *240:22 0.00122894
25 *36:22 *240:22 0
*RES
1 *2932:Y *240:6 40 
2 *240:6 *240:12 42.0497 
3 *240:12 *240:18 43.5072 
4 *240:18 *240:20 20 
5 *240:20 *240:22 67.3723 
6 *240:22 *240:26 40 
7 *240:26 *2994:A1 20 
*END

*D_NET *241 0.0269522
*CONN
*I *2996:A1 I *D sg13g2_o21ai_1
*I *2933:Y O *D sg13g2_inv_1
*CAP
1 *2996:A1 0
2 *2933:Y 0
3 *241:26 0.000114614
4 *241:20 0.00820651
5 *241:12 0.0080919
6 *241:10 0.00112182
7 *241:6 0.00112182
8 *241:10 *273:30 0
9 *241:10 *583:20 0
10 *241:10 *631:16 0
11 *241:10 *648:12 0
12 *241:20 *270:16 0
13 *241:20 *270:32 0.000905058
14 *241:20 *293:22 0.00190598
15 *241:20 *344:20 0
16 *241:20 *641:30 0.00548454
17 *241:26 *586:31 0
18 *241:26 *641:42 0
19 *18:11 *241:20 0
20 *18:19 *241:20 0
21 *19:11 *241:20 0
22 *240:12 *241:10 0
*RES
1 *2933:Y *241:6 40 
2 *241:6 *241:10 31.1343 
3 *241:10 *241:12 20 
4 *241:12 *241:20 49.6701 
5 *241:20 *241:26 40.9476 
6 *241:26 *2996:A1 40 
*END

*D_NET *242 0.0216754
*CONN
*I *2998:A1 I *D sg13g2_o21ai_1
*I *2934:Y O *D sg13g2_inv_1
*CAP
1 *2998:A1 0
2 *2934:Y 0
3 *242:28 0.000211812
4 *242:22 0.00422852
5 *242:20 0.00401671
6 *242:18 0.00173844
7 *242:10 0.00258768
8 *242:6 0.000849237
9 *242:10 *569:14 0
10 *242:10 *600:81 0.0015537
11 *242:18 *3074:S 0
12 *242:18 *249:12 0
13 *242:18 *275:10 0.00117309
14 *242:18 *298:40 0
15 *242:18 *430:27 0
16 *242:18 *431:23 0
17 *242:18 *520:8 0.000177813
18 *242:18 *529:8 0.000232793
19 *242:18 *624:78 0
20 *242:22 *270:20 0
21 *242:22 *346:10 0.000408876
22 *242:22 *385:64 0
23 *242:22 *417:57 0
24 *242:22 *422:62 0
25 *242:28 *2994:A2 0
26 *242:28 *2996:A2 1.54008e-05
27 *242:28 *245:62 3.23417e-05
28 *242:28 *385:72 0
29 *11:9 *242:10 0.00053586
30 *28:10 *242:22 0.00391315
31 *35:18 *242:22 0
32 *36:22 *242:22 0
33 *68:19 *242:18 0
34 *68:64 *242:18 0
35 *91:8 *242:18 0
36 *162:12 *242:18 0
*RES
1 *2934:Y *242:6 40 
2 *242:6 *242:10 30.2691 
3 *242:10 *242:18 37.7984 
4 *242:18 *242:20 20 
5 *242:20 *242:22 39.9022 
6 *242:22 *242:28 41.6486 
7 *242:28 *2998:A1 20 
*END

*D_NET *243 0.0385395
*CONN
*I *2937:S I *D sg13g2_mux2_1
*I *2939:S I *D sg13g2_mux2_1
*I *2938:S I *D sg13g2_mux2_1
*I *2936:S I *D sg13g2_mux2_1
*I *2935:Y O *D sg13g2_nand2_1
*CAP
1 *2937:S 0
2 *2939:S 0.000741574
3 *2938:S 0.000317591
4 *2936:S 4.37077e-05
5 *2935:Y 0.000155797
6 *243:73 0.000678562
7 *243:63 0.00110255
8 *243:61 0.00077055
9 *243:51 0.00087959
10 *243:47 0.000787698
11 *243:35 0.00119322
12 *243:14 0.00237809
13 *243:12 0.00350857
14 *243:8 0.00184455
15 *2936:S *544:46 8.00842e-05
16 *2936:S *700:24 8.00842e-05
17 *2938:S *277:20 0.00037154
18 *2938:S *298:28 0.000505416
19 *2938:S *508:30 1.54008e-05
20 *2939:S *3572:A 0.00054471
21 *2939:S *297:18 0
22 *2939:S *297:24 0
23 *2939:S *617:28 0
24 *2939:S *679:8 0.000834705
25 *243:8 *2935:B 0.000272718
26 *243:8 *699:59 0.000272718
27 *243:12 *3077:A0 0.00086295
28 *243:12 *247:32 0.00124099
29 *243:12 *322:10 0.00131585
30 *243:12 *322:12 0.000740549
31 *243:12 *322:18 0.00171811
32 *243:12 *328:80 0.00250968
33 *243:12 *356:20 0
34 *243:12 *433:22 0.0012854
35 *243:12 *484:10 0.00171937
36 *243:12 *485:8 0
37 *243:12 *562:75 0
38 *243:12 *562:98 0
39 *243:14 *256:34 0
40 *243:14 *256:48 0
41 *243:14 *291:113 0
42 *243:14 *291:119 0
43 *243:14 *356:20 0.00233959
44 *243:14 *422:24 0
45 *243:14 *629:67 0
46 *243:14 *639:38 0.00208829
47 *243:14 *691:41 0.000444235
48 *243:35 *256:48 0
49 *243:35 *562:30 0
50 *243:35 *610:8 0.000340704
51 *243:35 *610:20 0.000428093
52 *243:47 *569:14 0
53 *243:47 *610:20 0.000177583
54 *243:47 *628:30 0
55 *243:51 *244:10 0.000209526
56 *243:61 *2943:S 0
57 *243:61 *244:10 1.54556e-05
58 *243:61 *277:20 0.000144843
59 *243:61 *298:28 0.000985582
60 *243:61 *554:12 0.000533424
61 *243:61 *690:20 0.000177109
62 *243:73 *274:12 0
63 *243:73 *352:30 0
64 *243:73 *679:8 7.30101e-05
65 *7:9 *243:35 0.000460577
66 *14:9 *243:47 1.50092e-05
67 *18:9 *243:61 0.000177891
68 *19:9 *243:47 0
69 *20:11 *243:47 8.04683e-05
70 *52:24 *243:61 0
71 *53:8 *243:51 0.000194071
72 *53:8 *243:61 0.000242328
73 *72:16 *243:14 0
74 *92:14 *243:73 0.000409804
75 *99:10 *243:47 0.000229583
*RES
1 *2935:Y *243:8 41.8334 
2 *243:8 *243:12 30.5807 
3 *243:12 *243:14 20.8678 
4 *243:14 *2936:S 40.5356 
5 *243:14 *243:35 46.1285 
6 *243:35 *243:47 47.6117 
7 *243:47 *243:51 21.4008 
8 *243:51 *243:61 49.0537 
9 *243:61 *243:63 20 
10 *243:63 *243:73 43.399 
11 *243:73 *2938:S 43.8007 
12 *243:63 *2939:S 47.9413 
13 *243:51 *2937:S 20 
*END

*D_NET *244 0.0115409
*CONN
*I *2941:S I *D sg13g2_mux2_1
*I *2942:S I *D sg13g2_mux2_1
*I *2944:S I *D sg13g2_mux2_1
*I *2943:S I *D sg13g2_mux2_1
*I *2940:Y O *D sg13g2_nand2b_1
*CAP
1 *2941:S 4.10924e-05
2 *2942:S 0.000450468
3 *2944:S 5.18371e-05
4 *2943:S 0.00141512
5 *2940:Y 0
6 *244:38 0.00102003
7 *244:12 0.00146696
8 *244:10 0.000990662
9 *244:4 0.00151913
10 *2941:S *2942:A0 4.21165e-05
11 *2942:S *2942:A0 0
12 *2942:S *3554:A 0
13 *2942:S *257:8 0.000177474
14 *2942:S *260:26 0.000272718
15 *2943:S *2938:A0 0
16 *2943:S *348:18 0
17 *2943:S *348:20 0.000402753
18 *2943:S *348:28 0
19 *2943:S *554:12 0
20 *2943:S *625:100 0
21 *2944:S *348:18 0
22 *244:10 *3176:RESET_B 8.01995e-05
23 *244:10 *277:20 0
24 *244:10 *298:28 0.000403466
25 *244:10 *544:46 0.000685152
26 *244:10 *700:24 0.000855839
27 *244:38 *2940:A_N 0.000125175
28 *244:38 *2942:A0 0
29 *244:38 *3000:B 0
30 *244:38 *3554:A 0
31 *244:38 *257:8 0
32 *244:38 *506:8 0
33 *244:38 *544:46 0.000706204
34 *244:38 *555:40 0.00017721
35 *244:38 *562:30 7.9225e-05
36 *19:9 *244:10 0
37 *53:8 *244:10 0
38 *75:22 *2944:S 0
39 *95:18 *2942:S 0.000272949
40 *99:10 *2943:S 8.00842e-05
41 *243:51 *244:10 0.000209526
42 *243:61 *2943:S 0
43 *243:61 *244:10 1.54556e-05
*RES
1 *2940:Y *244:4 20 
2 *244:4 *244:10 30.1558 
3 *244:10 *244:12 20 
4 *244:12 *2943:S 32.445 
5 *244:12 *2944:S 20.5974 
6 *244:4 *244:38 45.6753 
7 *244:38 *2942:S 24.5629 
8 *244:38 *2941:S 20.6309 
*END

*D_NET *245 0.0257025
*CONN
*I *2994:A2 I *D sg13g2_o21ai_1
*I *2998:A2 I *D sg13g2_o21ai_1
*I *2996:A2 I *D sg13g2_o21ai_1
*I *2992:A2 I *D sg13g2_o21ai_1
*I *2967:A I *D sg13g2_nor2_1
*I *2946:Y O *D sg13g2_inv_1
*CAP
1 *2994:A2 2.97034e-05
2 *2998:A2 0
3 *2996:A2 0.000301458
4 *2992:A2 2.60565e-05
5 *2967:A 0
6 *2946:Y 9.35211e-05
7 *245:62 0.000418176
8 *245:47 0.000305263
9 *245:45 0.000192191
10 *245:43 0.00225259
11 *245:37 0.00395886
12 *245:24 0.00029335
13 *245:16 0.00234029
14 *245:8 0.00384672
15 *2992:A2 *2992:B1 4.77425e-05
16 *2994:A2 *3603:A 0
17 *2996:A2 *255:26 8.00842e-05
18 *2996:A2 *299:28 0
19 *2996:A2 *575:14 0
20 *245:8 *349:22 7.44734e-05
21 *245:8 *610:58 0.000335278
22 *245:16 *573:22 0
23 *245:16 *583:70 0.00276546
24 *245:16 *617:22 0.000410598
25 *245:24 *292:10 0
26 *245:24 *625:77 4.77425e-05
27 *245:24 *697:10 0
28 *245:37 *427:63 0
29 *245:37 *583:95 0
30 *245:37 *587:116 0
31 *245:37 *610:58 0.000589381
32 *245:37 *670:16 0.00275973
33 *245:43 *317:22 0
34 *245:43 *559:16 0
35 *245:43 *576:8 0.000330693
36 *245:43 *582:8 0.000126005
37 *245:43 *582:18 0
38 *245:43 *582:112 0
39 *245:43 *583:95 0.000614664
40 *245:43 *583:109 0.000472372
41 *245:43 *606:12 0
42 *245:43 *670:16 0
43 *245:43 *670:24 0.00058622
44 *245:47 *2992:B1 4.77425e-05
45 *245:62 *255:26 1.54008e-05
46 *245:62 *339:16 0.00028389
47 uio_oe[6] *245:8 0
48 *2992:A1 *2992:A2 4.77425e-05
49 *2992:A1 *245:47 3.23417e-05
50 *3352:CLK *245:24 0.000181335
51 *7:35 *245:43 0
52 *33:14 *245:43 0.000701843
53 *35:12 *245:62 0.000180919
54 *52:24 *245:24 0.000182555
55 *80:10 *245:8 0.000177702
56 *80:10 *245:37 0.000504641
57 *242:28 *2994:A2 0
58 *242:28 *2996:A2 1.54008e-05
59 *242:28 *245:62 3.23417e-05
*RES
1 *2946:Y *245:8 41.5862 
2 *245:8 *245:16 44.1638 
3 *245:16 *245:24 42.8943 
4 *245:24 *2967:A 20 
5 *245:8 *245:37 41.63 
6 *245:37 *245:43 43.072 
7 *245:43 *245:45 20 
8 *245:45 *245:47 1.4008 
9 *245:47 *2992:A2 20.3193 
10 *245:47 *245:62 41.6583 
11 *245:62 *2996:A2 22.7192 
12 *245:62 *2998:A2 20 
13 *245:45 *2994:A2 20.3193 
*END

*D_NET *246 0.0526371
*CONN
*I *2975:A I *D sg13g2_nand2_1
*I *2974:A2 I *D sg13g2_o21ai_1
*I *2972:A2 I *D sg13g2_o21ai_1
*I *2969:Y O *D sg13g2_nand2_1
*CAP
1 *2975:A 0.000714274
2 *2974:A2 0
3 *2972:A2 0
4 *2969:Y 0.00147335
5 *246:100 0.00159721
6 *246:90 0.00143333
7 *246:80 0.00117093
8 *246:76 0.00147869
9 *246:70 0.00179496
10 *246:53 0.00080136
11 *246:43 0.00323271
12 *246:39 0.00151976
13 *246:28 0.000410292
14 *246:20 0.00185885
15 *246:16 0.00323103
16 *246:12 0.0032306
17 *2975:A *3501:A 4.77425e-05
18 *2975:A *3531:A 6.99456e-05
19 *2975:A *3545:A 0
20 *2975:A *247:24 0
21 *2975:A *625:12 0.000111567
22 *2975:A *692:69 0
23 *246:12 *3068:S 0.000402085
24 *246:12 *3233:RESET_B 4.77425e-05
25 *246:12 *3235:RESET_B 3.09112e-06
26 *246:12 *427:32 0
27 *246:12 *579:50 0
28 *246:12 *579:64 0
29 *246:12 *587:18 0
30 *246:12 *615:85 0.000209056
31 *246:12 *615:98 0.000129555
32 *246:12 *615:104 0.000208853
33 *246:16 *3235:RESET_B 0
34 *246:16 *427:32 0.00026415
35 *246:16 *616:105 0
36 *246:16 *616:112 0
37 *246:16 *649:10 0.00172832
38 *246:20 *247:52 0
39 *246:20 *624:50 0
40 *246:28 *342:12 0.000916996
41 *246:28 *348:55 0
42 *246:28 *670:8 2.16289e-05
43 *246:39 *248:26 3.15371e-05
44 *246:39 *292:10 0
45 *246:43 *592:56 0.000476058
46 *246:43 *592:66 0.000146755
47 *246:43 *617:22 0
48 *246:43 *692:16 0
49 *246:43 *697:18 0.000967703
50 *246:53 *318:62 4.77425e-05
51 *246:53 *414:60 0.00106944
52 *246:53 *416:53 0.000649419
53 *246:53 *528:10 0
54 *246:53 *528:22 0
55 *246:53 *562:30 0
56 *246:53 *691:24 0.000176252
57 *246:70 *3356:RESET_B 0.000494527
58 *246:70 *416:20 0.000125706
59 *246:70 *416:24 7.93742e-05
60 *246:70 *416:43 0
61 *246:70 *422:32 0.000206339
62 *246:70 *625:24 0.00130738
63 *246:70 *666:16 0.00217278
64 *246:76 *352:26 0
65 *246:76 *417:18 0.000289364
66 *246:76 *583:32 0
67 *246:76 *692:33 0
68 *246:80 *323:43 0.00076437
69 *246:80 *487:10 0
70 *246:80 *522:30 0.00119521
71 *246:80 *692:53 0.0026786
72 *246:90 *487:10 0.000448185
73 *246:90 *487:29 0.00129877
74 *246:90 *533:16 0
75 *246:90 *692:53 0
76 *246:100 *272:20 0.000126325
77 *246:100 *322:10 0
78 *246:100 *323:20 0.000234103
79 *246:100 *419:24 0
80 *246:100 *420:14 0.000653287
81 *246:100 *625:20 0.00012812
82 *246:100 *631:26 1.54008e-05
83 *3235:D *246:16 0.000817219
84 *3593:A *2975:A 0.000144542
85 *12:13 *246:20 0
86 *51:22 *246:12 0.00206531
87 *51:29 *246:20 0.00257062
88 *54:24 *246:43 0
89 *65:12 *246:16 0
90 *68:23 *246:43 0
91 *76:10 *2975:A 0
92 *90:14 *246:16 0.00111542
93 *150:22 *246:80 7.51285e-05
94 *150:22 *246:90 0.00108775
95 *172:18 *246:16 0.000822522
96 *238:30 *246:28 4.77425e-05
*RES
1 *2969:Y *246:12 35.8826 
2 *246:12 *246:16 39.7657 
3 *246:16 *246:20 36.9744 
4 *246:20 *246:28 44.6247 
5 *246:28 *2972:A2 20 
6 *246:28 *246:39 40.3193 
7 *246:39 *246:43 34.5951 
8 *246:43 *246:53 49.0228 
9 *246:53 *2974:A2 40 
10 *246:43 *246:70 33.5445 
11 *246:70 *246:76 47.0246 
12 *246:76 *246:80 32.463 
13 *246:80 *246:90 48.8683 
14 *246:90 *246:100 48.8374 
15 *246:100 *2975:A 46.077 
*END

*D_NET *247 0.0271916
*CONN
*I *2975:B I *D sg13g2_nand2_1
*I *2973:B I *D sg13g2_or2_1
*I *2970:Y O *D sg13g2_nand2_1
*CAP
1 *2975:B 2.48096e-05
2 *2973:B 0
3 *2970:Y 0.000502489
4 *247:60 0.000658682
5 *247:52 0.00396891
6 *247:50 0.00350391
7 *247:44 0.00159211
8 *247:38 0.00144696
9 *247:32 0.00125018
10 *247:24 0.00224281
11 *247:14 0.00106597
12 *247:12 0.000502489
13 *2975:B *258:18 1.54008e-05
14 *2975:B *263:18 3.23417e-05
15 *247:12 *258:10 7.34121e-05
16 *247:12 *288:41 0
17 *247:12 *533:10 0
18 *247:12 *629:104 0
19 *247:12 *692:69 0.00043981
20 *247:12 *704:58 0
21 *247:24 *263:18 7.99388e-05
22 *247:24 *263:28 0
23 *247:24 *344:91 0
24 *247:24 *422:89 0
25 *247:24 *433:16 0
26 *247:24 *522:14 0
27 *247:24 *627:28 0.000496884
28 *247:32 *345:12 0
29 *247:32 *351:71 0
30 *247:32 *433:22 0
31 *247:32 *630:47 0
32 *247:32 *630:53 0
33 *247:32 *692:59 0.00023122
34 *247:32 *699:59 0.000281583
35 *247:44 *300:26 0
36 *247:44 *328:18 0.000936934
37 *247:44 *346:10 0.000173655
38 *247:44 *562:63 0
39 *247:44 *698:14 0
40 *247:50 *297:10 0.000811055
41 *247:50 *351:71 0.000758024
42 *247:52 *297:14 0
43 *247:52 *343:20 0
44 *247:52 *344:24 0
45 *247:52 *431:42 0
46 *247:52 *573:34 0
47 *247:52 *624:50 0
48 *247:60 *3073:A1 0
49 *247:60 *249:8 0
50 *247:60 *271:12 0
51 *247:60 *292:10 0
52 uio_oe[6] *247:60 0
53 uio_oe[7] *247:60 0
54 *2975:A *247:24 0
55 *12:13 *247:52 0
56 *17:21 *247:24 0.000300568
57 *54:16 *247:44 0.00427146
58 *167:16 *247:24 0
59 *236:20 *247:24 0.000288963
60 *243:12 *247:32 0.00124099
61 *246:20 *247:52 0
*RES
1 *2970:Y *247:12 44.944 
2 *247:12 *247:14 20 
3 *247:14 *247:24 49.2391 
4 *247:24 *247:32 32.1128 
5 *247:32 *247:38 40.3193 
6 *247:38 *247:44 40.8163 
7 *247:44 *247:50 43.811 
8 *247:50 *247:52 32.1154 
9 *247:52 *247:60 46.077 
10 *247:60 *2973:B 20 
11 *247:14 *2975:B 20.3193 
*END

*D_NET *248 0.00509864
*CONN
*I *2972:B1 I *D sg13g2_o21ai_1
*I *2971:Y O *D sg13g2_nand3_1
*CAP
1 *2972:B1 0
2 *2971:Y 0.00137007
3 *248:26 0.000132355
4 *248:16 0.00150242
5 *248:16 *3434:A 0.000176598
6 *248:16 *493:16 0.00106457
7 *248:16 *564:14 0
8 *248:16 *583:60 0.00056369
9 *248:26 *342:12 0.000177497
10 *248:26 *493:16 0
11 *51:54 *248:16 0
12 *163:8 *248:16 7.99037e-05
13 *246:39 *248:26 3.15371e-05
*RES
1 *2971:Y *248:16 34.2408 
2 *248:16 *248:26 41.4059 
3 *248:26 *2972:B1 20 
*END

*D_NET *249 0.0166075
*CONN
*I *2974:B1 I *D sg13g2_o21ai_1
*I *2973:X O *D sg13g2_or2_1
*CAP
1 *2974:B1 0.000445194
2 *2973:X 0.000167002
3 *249:18 0.00245338
4 *249:12 0.00307543
5 *249:8 0.00123424
6 *2974:B1 *2974:A1 0.000210161
7 *2974:B1 *700:14 0.000305242
8 *2974:B1 *700:24 0
9 *249:8 *271:12 0
10 *249:8 *592:86 7.93707e-05
11 *249:8 *697:28 0.000175693
12 *249:12 *287:27 0
13 *249:12 *298:40 0
14 *249:12 *580:10 0
15 *249:18 *275:18 0.000339651
16 *249:18 *519:44 0
17 *249:18 *562:14 0.00293467
18 *249:18 *610:20 0
19 uio_oe[7] *249:12 0
20 *3587:A *249:12 0
21 *7:9 *249:18 0.00345334
22 *15:9 *2974:B1 0
23 *19:9 *249:18 0.00038373
24 *53:8 *2974:B1 0.00069371
25 *91:8 *249:12 0.000656652
26 *242:18 *249:12 0
27 *247:60 *249:8 0
*RES
1 *2973:X *249:8 41.6171 
2 *249:8 *249:12 29.4966 
3 *249:12 *249:18 44.8642 
4 *249:18 *2974:B1 45.0779 
*END

*D_NET *250 0.00396107
*CONN
*I *2991:A2 I *D sg13g2_a22oi_1
*I *2993:A2 I *D sg13g2_a22oi_1
*I *2995:A2 I *D sg13g2_a22oi_1
*I *2997:A2 I *D sg13g2_a22oi_1
*I *2988:Y O *D sg13g2_nor2_1
*CAP
1 *2991:A2 0
2 *2993:A2 0.000178854
3 *2995:A2 0.000133763
4 *2997:A2 0
5 *2988:Y 0.000155104
6 *250:57 0.000338816
7 *250:23 0.000607133
8 *250:12 0.000322403
9 *250:10 0.000366703
10 *250:8 0.000155104
11 *2993:A2 *2993:A1 0
12 *2993:A2 *652:33 0.000251727
13 *2995:A2 *2991:B1 0
14 *2995:A2 *2993:B1 1.51734e-05
15 *2995:A2 *3623:D 0
16 *2995:A2 *652:33 4.75425e-05
17 *250:8 *326:10 0.000391164
18 *250:8 *637:10 0
19 *250:12 *2997:B2 4.77425e-05
20 *250:23 *2995:A1 0
21 *250:23 *2997:B2 3.23417e-05
22 *250:23 *2997:A1 0
23 *250:23 *251:23 0
24 *250:23 *599:81 0
25 *250:23 *656:27 0
26 *250:57 *2991:B1 0
27 *250:57 *2997:B2 0
28 *250:57 *3622:D 0.000182109
29 *250:57 *3623:D 8.00842e-05
30 *250:57 *3623:GATE 0.000207708
31 *250:57 *283:19 0
32 *250:57 *634:54 0.000447597
*RES
1 *2988:Y *250:8 41.8334 
2 *250:8 *250:10 20 
3 *250:10 *250:12 0.3193 
4 *250:12 *2997:A2 20 
5 *250:12 *250:23 22.8016 
6 *250:23 *2995:A2 41.3184 
7 *250:23 *2993:A2 41.9982 
8 *250:10 *250:57 44.1509 
9 *250:57 *2991:A2 20 
*END

*D_NET *251 0.00268429
*CONN
*I *2993:B1 I *D sg13g2_a22oi_1
*I *2995:B1 I *D sg13g2_a22oi_1
*I *2991:B1 I *D sg13g2_a22oi_1
*I *2997:B1 I *D sg13g2_a22oi_1
*I *2990:Y O *D sg13g2_nor2b_1
*CAP
1 *2993:B1 0.000233705
2 *2995:B1 0
3 *2991:B1 0.000351667
4 *2997:B1 0
5 *2990:Y 0.000246194
6 *251:23 0.00071433
7 *251:12 0.000375152
8 *2991:B1 *2995:A1 4.77425e-05
9 *2991:B1 *3623:D 0
10 *2991:B1 *3623:GATE 0
11 *2991:B1 *358:16 0
12 *2993:B1 *2995:A1 9.6913e-05
13 *2993:B1 *652:33 0
14 *251:12 *2997:B2 0
15 *251:12 *2997:A1 4.77425e-05
16 *251:12 *326:10 0.000128248
17 *251:12 *584:84 0
18 *251:12 *595:41 0.0001122
19 *251:12 *599:81 0
20 *251:12 *634:54 0
21 *251:23 *326:10 0.000315222
22 *251:23 *599:81 0
23 *2995:A2 *2991:B1 0
24 *2995:A2 *2993:B1 1.51734e-05
25 *250:23 *251:23 0
26 *250:57 *2991:B1 0
*RES
1 *2990:Y *251:12 42.5647 
2 *251:12 *2997:B1 40 
3 *251:12 *251:23 21.5862 
4 *251:23 *2991:B1 23.2136 
5 *251:23 *2995:B1 20 
6 *251:23 *2993:B1 22.781 
*END

*D_NET *252 0.0149353
*CONN
*I *2992:B1 I *D sg13g2_o21ai_1
*I *2991:Y O *D sg13g2_a22oi_1
*CAP
1 *2992:B1 5.38219e-05
2 *2991:Y 0.000161398
3 *252:22 0.000113766
4 *252:16 0.00644239
5 *252:14 0.00680694
6 *252:8 0.0005859
7 *2992:B1 *575:14 1.54008e-05
8 *252:8 *3622:D 0
9 *252:8 *282:23 0.0004481
10 *252:8 *283:19 0
11 *252:14 *253:12 0
12 *252:14 *254:12 0
13 *252:14 *255:12 0.00021209
14 *252:16 *253:14 0
15 *252:16 *255:16 0
16 *252:16 *255:20 0
17 *252:16 *586:31 0
18 *252:22 *279:12 0
19 *2992:A2 *2992:B1 4.77425e-05
20 *245:47 *2992:B1 4.77425e-05
*RES
1 *2991:Y *252:8 42.0806 
2 *252:8 *252:14 44.429 
3 *252:14 *252:16 63.3862 
4 *252:16 *252:22 40.5356 
5 *252:22 *2992:B1 40.5356 
*END

*D_NET *253 0.0105709
*CONN
*I *2994:B1 I *D sg13g2_o21ai_1
*I *2993:Y O *D sg13g2_a22oi_1
*CAP
1 *2994:B1 0
2 *2993:Y 0
3 *253:18 0
4 *253:14 0.00507624
5 *253:12 0.00528547
6 *253:6 0.000209227
7 *252:14 *253:12 0
8 *252:16 *253:14 0
*RES
1 *2993:Y *253:6 40 
2 *253:6 *253:12 42.266 
3 *253:12 *253:14 65.3638 
4 *253:14 *253:18 40 
5 *253:18 *2994:B1 40 
*END

*D_NET *254 0.0188872
*CONN
*I *2996:B1 I *D sg13g2_o21ai_1
*I *2995:Y O *D sg13g2_a22oi_1
*CAP
1 *2996:B1 0
2 *2995:Y 0
3 *254:26 0
4 *254:22 0.00218573
5 *254:16 0.00446427
6 *254:12 0.00234963
7 *254:6 7.10928e-05
8 *254:16 *443:44 0.0083688
9 *254:22 *443:44 0
10 *254:22 *641:42 0.000510202
11 *254:22 *641:73 0.000937464
12 *34:16 *254:22 0
13 *252:14 *254:12 0
*RES
1 *2995:Y *254:6 40 
2 *254:6 *254:12 40.5356 
3 *254:12 *254:16 39.1606 
4 *254:16 *254:22 45.647 
5 *254:22 *254:26 40 
6 *254:26 *2996:B1 20 
*END

*D_NET *255 0.013568
*CONN
*I *2998:B1 I *D sg13g2_o21ai_1
*I *2997:Y O *D sg13g2_a22oi_1
*CAP
1 *2998:B1 0
2 *2997:Y 0
3 *255:26 7.05662e-05
4 *255:20 0.00136318
5 *255:16 0.00624337
6 *255:12 0.00506389
7 *255:6 0.000113128
8 *255:16 *443:44 0
9 *255:20 *443:44 0
10 *255:20 *586:31 0.000293875
11 *255:26 *578:10 0.000112426
12 *2996:A2 *255:26 8.00842e-05
13 *245:62 *255:26 1.54008e-05
14 *252:14 *255:12 0.00021209
15 *252:16 *255:16 0
16 *252:16 *255:20 0
*RES
1 *2997:Y *255:6 40 
2 *255:6 *255:12 41.4008 
3 *255:12 *255:16 48.3791 
4 *255:16 *255:20 33.9462 
5 *255:20 *255:26 40.7519 
6 *255:26 *2998:B1 20 
*END

*D_NET *256 0.0247996
*CONN
*I *3007:C I *D sg13g2_nand3_1
*I *3010:D I *D sg13g2_nand4_1
*I *3020:S I *D sg13g2_mux2_1
*I *3005:B1 I *D sg13g2_o21ai_1
*I *2999:Y O *D sg13g2_nor2b_1
*CAP
1 *3007:C 5.45048e-05
2 *3010:D 2.99958e-05
3 *3020:S 0
4 *3005:B1 0
5 *2999:Y 3.32345e-05
6 *256:91 0.00108392
7 *256:85 0.00134641
8 *256:68 0.000960756
9 *256:48 0.00141608
10 *256:34 0.00195847
11 *256:30 0.00174665
12 *256:16 0.00370539
13 *256:12 0.00162208
14 *256:6 0.00040194
15 *3007:C *3007:B 6.39133e-05
16 *3010:D *3010:C 4.77425e-05
17 *256:6 *708:33 4.75525e-05
18 *256:12 *432:37 7.78609e-05
19 *256:12 *433:22 7.78609e-05
20 *256:16 *544:12 0
21 *256:16 *562:98 0.000823454
22 *256:16 *600:57 0
23 *256:16 *629:22 0.00178594
24 *256:16 *648:14 0
25 *256:30 *343:20 0.000142716
26 *256:30 *544:12 0
27 *256:30 *648:14 0.00037359
28 *256:34 *629:67 0
29 *256:48 *3000:B 0
30 *256:48 *3005:A1 0
31 *256:48 *3554:A 0
32 *256:48 *569:22 1.54282e-05
33 *256:48 *708:18 0.000339726
34 *256:68 *583:32 7.81165e-05
35 *256:68 *600:77 0.000456194
36 *256:68 *703:56 0
37 *256:85 *263:28 0.00049244
38 *256:85 *592:39 0.00049361
39 *256:85 *708:33 0.000111522
40 *256:91 *260:55 0.000716129
41 *256:91 *263:28 0
42 *256:91 *300:22 0
43 *256:91 *527:16 0
44 *3172:D *256:48 0.000307126
45 *7:9 *256:48 0
46 *15:13 *256:34 0
47 *15:13 *256:48 0.00181854
48 *16:13 *256:30 0
49 *17:21 *256:91 0.000285423
50 *72:16 *256:48 0.000972865
51 *75:8 *256:91 0.000716129
52 *163:14 *256:68 1.4965e-05
53 *236:32 *256:91 0
54 *237:10 *256:91 0.000181298
55 *243:14 *256:34 0
56 *243:14 *256:48 0
57 *243:35 *256:48 0
*RES
1 *2999:Y *256:6 20.3193 
2 *256:6 *256:12 40.5356 
3 *256:12 *256:16 37.407 
4 *256:16 *256:30 32.2982 
5 *256:30 *256:34 24.0582 
6 *256:34 *256:48 37.0568 
7 *256:48 *3005:B1 20 
8 *256:34 *3020:S 40 
9 *256:16 *256:68 47.1585 
10 *256:68 *3010:D 40.3193 
11 *256:6 *256:85 44.1612 
12 *256:85 *256:91 31.2064 
13 *256:91 *3007:C 40.5356 
*END

*D_NET *257 0.0174525
*CONN
*I *3514:A I *D sg13g2_buf_1
*I *3000:Y O *D sg13g2_nand2b_1
*CAP
1 *3514:A 0
2 *3000:Y 0.000114372
3 *257:30 0.000127023
4 *257:22 0.0025788
5 *257:18 0.00481255
6 *257:14 0.00241987
7 *257:8 0.000173478
8 *257:8 *3554:A 0.000209931
9 *257:18 *262:20 0.000824126
10 *257:18 *555:22 0
11 *257:22 *262:20 0
12 *257:22 *262:39 0
13 *257:22 *525:26 0
14 *257:22 *555:20 0
15 *257:22 *555:22 0.00475165
16 *257:22 *628:12 0
17 *257:30 *288:41 0
18 *257:30 *624:14 0
19 *257:30 *629:12 0
20 *257:30 *630:16 0
21 *2942:S *257:8 0.000177474
22 *17:13 *257:18 0
23 *236:26 *257:22 0.00126325
24 *236:40 *257:18 0
25 *244:38 *257:8 0
*RES
1 *3000:Y *257:8 41.4008 
2 *257:8 *257:14 40.5356 
3 *257:14 *257:18 23.4119 
4 *257:18 *257:22 49.767 
5 *257:22 *257:30 41.0712 
6 *257:30 *3514:A 20 
*END

*D_NET *258 0.0272559
*CONN
*I *3018:A1 I *D sg13g2_a21oi_1
*I *3016:A I *D sg13g2_nand2_1
*I *3001:X O *D sg13g2_and2_1
*CAP
1 *3018:A1 0
2 *3016:A 0
3 *3001:X 0.000144081
4 *258:51 0.000638863
5 *258:47 0.000802773
6 *258:41 0.00158736
7 *258:39 0.00197727
8 *258:26 0.000295193
9 *258:18 0.00127728
10 *258:10 0.000572341
11 *258:10 *263:18 4.77425e-05
12 *258:10 *288:41 0
13 *258:18 *3004:B 0.000175548
14 *258:18 *3545:A 0.000230175
15 *258:18 *263:18 0.000143351
16 *258:18 *701:101 1.54008e-05
17 *258:26 *2928:A 0
18 *258:26 *268:8 0.000767831
19 *258:26 *346:50 0
20 *258:26 *641:8 0.000342449
21 *258:39 *3004:B 3.23417e-05
22 *258:39 *3545:A 1.54008e-05
23 *258:39 *259:53 0
24 *258:39 *632:46 0.000982067
25 *258:41 *259:53 0
26 *258:41 *525:14 0.00573767
27 *258:47 *632:60 8.00842e-05
28 *258:51 *267:19 0.001521
29 *258:51 *267:25 0
30 *258:51 *269:14 0.00264091
31 *2975:B *258:18 1.54008e-05
32 *3582:A *258:39 0
33 *8:13 *258:41 0.00713994
34 *247:12 *258:10 7.34121e-05
*RES
1 *3001:X *258:10 41.1639 
2 *258:10 *258:18 24.2333 
3 *258:18 *258:26 44.1303 
4 *258:26 *3016:A 20 
5 *258:18 *258:39 26.9525 
6 *258:39 *258:41 32.7334 
7 *258:41 *258:47 41.4008 
8 *258:47 *258:51 32.2158 
9 *258:51 *3018:A1 20 
*END

*D_NET *259 0.0242042
*CONN
*I *3004:A I *D sg13g2_nor2_1
*I *3005:A1 I *D sg13g2_o21ai_1
*I *3002:Y O *D sg13g2_nand3b_1
*CAP
1 *3004:A 0
2 *3005:A1 5.22069e-05
3 *3002:Y 3.13047e-05
4 *259:61 0.000263771
5 *259:53 0.00273724
6 *259:47 0.00313184
7 *259:36 0.000770531
8 *259:30 0.000849863
9 *259:22 0.000928291
10 *259:12 0.00246884
11 *259:8 0.00104502
12 *3005:A1 *3554:A 0
13 *259:8 *308:27 0
14 *259:12 *339:12 0
15 *259:12 *346:10 0
16 *259:12 *422:32 0.000583508
17 *259:12 *628:22 0
18 *259:12 *706:26 0
19 *259:22 *288:17 0
20 *259:22 *295:16 0.00156279
21 *259:22 *632:60 0
22 *259:22 *673:16 0.000176252
23 *259:30 *262:16 0.000339348
24 *259:30 *506:14 0.000340344
25 *259:36 *3182:RESET_B 0.000341132
26 *259:36 *262:16 0.00198786
27 *259:36 *266:18 0
28 *259:36 *592:151 0
29 *259:36 *668:27 0.000448099
30 *259:47 *339:12 0
31 *259:47 *346:10 0
32 *259:53 *3019:A 0.000240377
33 *259:53 *525:14 0
34 *259:53 *707:23 0.00499183
35 *259:61 *3016:B 0.000233463
36 *259:61 *261:16 0.000604794
37 *259:61 *267:36 0
38 *149:22 *259:8 7.54955e-05
39 *236:44 *259:36 0
40 *256:48 *3005:A1 0
41 *258:39 *259:53 0
42 *258:41 *259:53 0
*RES
1 *3002:Y *259:8 40.3502 
2 *259:8 *259:12 28.5387 
3 *259:12 *259:22 48.8065 
4 *259:22 *259:30 42.1218 
5 *259:30 *259:36 49.991 
6 *259:36 *3005:A1 20.5356 
7 *259:12 *259:47 27.0246 
8 *259:47 *259:53 49.4065 
9 *259:53 *259:61 43.3578 
10 *259:61 *3004:A 20 
*END

*D_NET *260 0.0286319
*CONN
*I *3004:B I *D sg13g2_nor2_1
*I *3005:A2 I *D sg13g2_o21ai_1
*I *3003:Y O *D sg13g2_nand4_1
*CAP
1 *3004:B 0.000132527
2 *3005:A2 0
3 *3003:Y 0.0018048
4 *260:55 0.000895594
5 *260:47 0.00165764
6 *260:32 0.000106263
7 *260:26 0.00222438
8 *260:20 0.00301269
9 *260:18 0.0018048
10 *3004:B *3007:B 7.86681e-05
11 *260:18 *3003:A 0
12 *260:18 *3003:D 0.000369693
13 *260:18 *3311:RESET_B 9.7025e-05
14 *260:18 *301:28 0.000659054
15 *260:18 *629:67 0.000143491
16 *260:18 *699:6 0.000337174
17 *260:18 *699:35 7.86681e-05
18 *260:18 *705:16 0.000610599
19 *260:18 *706:10 8.00842e-05
20 *260:26 *3554:A 0.000402192
21 *260:26 *269:14 0
22 *260:26 *673:18 0
23 *260:26 *707:10 7.48178e-05
24 *260:32 *262:16 0.00012816
25 *260:47 *344:8 7.9225e-05
26 *260:47 *673:18 0
27 *260:47 *703:18 0
28 *260:47 *707:10 5.15366e-05
29 *260:55 *673:18 0.00172695
30 *260:55 *702:44 0
31 *260:55 *702:61 0
32 *2942:S *260:26 0.000272718
33 *8:9 *260:26 0
34 *75:8 *260:55 0
35 *105:14 *260:26 0
36 *105:14 *260:47 0.00410329
37 *107:10 *260:55 1.56751e-05
38 *107:16 *260:47 0.000874845
39 *107:16 *260:55 0.00247751
40 *107:24 *260:47 0.00162277
41 *107:32 *260:18 0.00014454
42 *107:32 *260:47 0.00135288
43 *237:10 *260:55 0.00028766
44 *256:91 *260:55 0.000716129
45 *258:18 *3004:B 0.000175548
46 *258:39 *3004:B 3.23417e-05
*RES
1 *3003:Y *260:18 37.4997 
2 *260:18 *260:20 20 
3 *260:20 *260:26 38.3752 
4 *260:26 *260:32 41.0918 
5 *260:32 *3005:A2 20 
6 *260:20 *260:47 40.0953 
7 *260:47 *260:55 34.3685 
8 *260:55 *3004:B 41.4008 
*END

*D_NET *261 0.0134549
*CONN
*I *3146:A2 I *D sg13g2_a21o_1
*I *3004:Y O *D sg13g2_nor2_1
*CAP
1 *3146:A2 0
2 *3004:Y 0
3 *261:16 0.00157422
4 *261:6 0.00157422
5 *261:16 *3012:B 9.6255e-05
6 *261:16 *3012:A 8.00842e-05
7 *261:16 *267:36 0
8 *261:16 *268:8 0.000551503
9 *261:16 *319:12 0.000175693
10 *261:16 *632:54 0.00456079
11 *261:16 *705:31 0.00423738
12 *261:16 *705:35 0
13 *259:61 *261:16 0.000604794
*RES
1 *3004:Y *261:6 40 
2 *261:6 *261:16 49.0573 
3 *261:16 *3146:A2 20 
*END

*D_NET *262 0.0190518
*CONN
*I *3006:B I *D sg13g2_xnor2_1
*I *3008:A2 I *D sg13g2_o21ai_1
*I *3005:Y O *D sg13g2_o21ai_1
*CAP
1 *3006:B 0
2 *3008:A2 0
3 *3005:Y 0
4 *262:47 0.000144478
5 *262:39 0.00156074
6 *262:26 0.00121001
7 *262:20 0.00370518
8 *262:16 0.00280866
9 *262:6 0.00172976
10 *262:16 *3489:A 0.0014573
11 *262:16 *288:17 0
12 *262:16 *318:31 0
13 *262:16 *339:12 0.000307886
14 *262:16 *506:14 0
15 *262:16 *626:30 0.000285687
16 *262:16 *626:32 0
17 *262:16 *704:26 7.31655e-05
18 *262:16 *705:8 0.000816916
19 *262:16 *705:29 0.000106151
20 *262:26 *343:14 0
21 *262:26 *352:22 0
22 *262:26 *385:40 0
23 *262:39 *263:28 7.93772e-05
24 *262:39 *527:16 0
25 *262:47 *3006:A 3.23417e-05
26 *262:47 *3152:A 0.000176367
27 *262:47 *627:28 0.000177894
28 *262:47 *701:81 0.000144025
29 *262:47 *704:58 0.000177894
30 *236:26 *262:39 0.000778471
31 *236:34 *262:39 0
32 *236:40 *262:20 0
33 *257:18 *262:20 0.000824126
34 *257:22 *262:20 0
35 *257:22 *262:39 0
36 *259:30 *262:16 0.000339348
37 *259:36 *262:16 0.00198786
38 *260:32 *262:16 0.00012816
*RES
1 *3005:Y *262:6 40 
2 *262:6 *262:16 42.351 
3 *262:16 *262:20 32.2158 
4 *262:20 *262:26 48.5387 
5 *262:26 *3008:A2 40 
6 *262:20 *262:39 34.4818 
7 *262:39 *262:47 42.0291 
8 *262:47 *3006:B 20 
*END

*D_NET *263 0.014184
*CONN
*I *3009:A I *D sg13g2_and2_1
*I *3011:B I *D sg13g2_xnor2_1
*I *3007:Y O *D sg13g2_nand3_1
*CAP
1 *3009:A 4.90447e-05
2 *3011:B 0.000320296
3 *3007:Y 0.000499077
4 *263:30 0.000820667
5 *263:28 0.00143828
6 *263:18 0.00148603
7 *3009:A *3009:B 1.54008e-05
8 *3009:A *627:30 8.00842e-05
9 *3011:B *319:14 0.000600049
10 *3011:B *319:36 0.00032018
11 *3011:B *319:47 0.000746183
12 *3011:B *592:39 0.00166965
13 *263:18 *3001:A 0
14 *263:18 *3006:A 0
15 *263:18 *265:30 0
16 *263:18 *701:81 0
17 *263:18 *704:58 0.000658056
18 *263:18 *706:67 0
19 *263:28 *319:81 0
20 *263:28 *419:40 0.000286959
21 *263:28 *592:39 0
22 *263:30 *319:47 0.000494977
23 *263:30 *319:81 0.00111483
24 *263:30 *418:29 0.000289003
25 *263:30 *592:39 0.00212093
26 *2975:B *263:18 3.23417e-05
27 *167:16 *263:28 0.000299062
28 *247:24 *263:18 7.99388e-05
29 *247:24 *263:28 0
30 *256:85 *263:28 0.00049244
31 *256:91 *263:28 0
32 *258:10 *263:18 4.77425e-05
33 *258:18 *263:18 0.000143351
34 *262:39 *263:28 7.93772e-05
*RES
1 *3007:Y *263:18 45.7783 
2 *263:18 *263:28 48.9919 
3 *263:28 *263:30 9.991 
4 *263:30 *3011:B 47.7662 
5 *263:30 *3009:A 40.5356 
*END

*D_NET *264 0.00302135
*CONN
*I *3009:B I *D sg13g2_and2_1
*I *3008:Y O *D sg13g2_o21ai_1
*CAP
1 *3009:B 0.000336274
2 *3008:Y 0.000433285
3 *264:10 0.000769559
4 *3009:B *417:73 0.000176883
5 *3009:B *627:30 0
6 *264:10 *3179:CLK 0.000497649
7 *264:10 *328:80 0.000335243
8 *264:10 *345:12 0.000335435
9 *3008:B1 *3009:B 0
10 *3008:B1 *264:10 0.000121622
11 *3009:A *3009:B 1.54008e-05
*RES
1 *3008:Y *264:10 44.9337 
2 *264:10 *3009:B 42.9149 
*END

*D_NET *265 0.0132614
*CONN
*I *3014:A2 I *D sg13g2_a21oi_1
*I *3010:Y O *D sg13g2_nand4_1
*CAP
1 *3014:A2 0
2 *3010:Y 0.000509629
3 *265:30 0.000181119
4 *265:20 0.00228238
5 *265:14 0.00247376
6 *265:8 0.000882126
7 *265:8 *416:16 2.46413e-05
8 *265:8 *483:10 0.000272718
9 *265:8 *701:20 0.000802754
10 *265:8 *701:28 1.54008e-05
11 *265:14 *703:35 0
12 *265:14 *703:56 0.000267636
13 *265:20 *522:14 0
14 *265:20 *628:12 0
15 *265:30 *3001:A 0
16 *265:30 *3014:B1 0
17 *3014:A1 *265:30 1.54008e-05
18 *17:13 *265:20 0.00489417
19 *17:21 *265:20 0.000639707
20 *263:18 *265:30 0
*RES
1 *3010:Y *265:8 45.2942 
2 *265:8 *265:14 42.9149 
3 *265:14 *265:20 47.0581 
4 *265:20 *265:30 41.6686 
5 *265:30 *3014:A2 20 
*END

*D_NET *266 0.0113091
*CONN
*I *3013:C I *D sg13g2_nor3_1
*I *3012:Y O *D sg13g2_nand3_1
*CAP
1 *3013:C 0
2 *3012:Y 2.63207e-05
3 *266:18 0.00164548
4 *266:8 0.00167181
5 *266:18 *3013:B 8.01116e-05
6 *266:18 *3182:RESET_B 0
7 *266:18 *3554:A 8.00842e-05
8 *266:18 *311:25 0.00290469
9 *266:18 *312:10 0
10 *266:18 *318:31 0.00236498
11 *266:18 *318:37 0.000714803
12 *266:18 *592:151 0.000393218
13 *95:10 *266:18 0.000341216
14 *236:44 *266:18 0.0010864
15 *259:36 *266:18 0
*RES
1 *3012:Y *266:8 40.3193 
2 *266:8 *266:18 45.0393 
3 *266:18 *3013:C 20 
*END

*D_NET *267 0.0221725
*CONN
*I *3017:A2 I *D sg13g2_a21oi_1
*I *3014:B1 I *D sg13g2_a21oi_1
*I *3016:B I *D sg13g2_nand2_1
*I *3015:B I *D sg13g2_xor2_1
*I *3018:A2 I *D sg13g2_a21oi_1
*I *3013:Y O *D sg13g2_nor3_1
*CAP
1 *3017:A2 0.000105085
2 *3014:B1 0.000330723
3 *3016:B 0.00063683
4 *3015:B 0.000111891
5 *3018:A2 0
6 *3013:Y 0.000171889
7 *267:53 0.000497942
8 *267:36 0.00098183
9 *267:25 0.00316119
10 *267:19 0.00325568
11 *267:6 0.000661131
12 *3014:B1 *3001:A 0
13 *3014:B1 *3017:A1 4.77425e-05
14 *3014:B1 *3017:B1 4.77425e-05
15 *3016:B *268:8 0
16 *3016:B *632:46 0
17 *3017:A2 *3017:A1 1.54008e-05
18 *267:6 *3554:A 0.000274412
19 *267:19 *3554:A 1.54008e-05
20 *267:19 *525:12 0
21 *267:25 *417:79 0.0021044
22 *267:25 *525:14 0
23 *267:25 *632:54 0.00418808
24 *3014:A1 *3014:B1 0.000112426
25 *3582:A *3016:B 0
26 *8:13 *3016:B 0
27 *8:13 *267:25 0.00287978
28 *8:13 *267:36 0.000770753
29 *105:12 *3015:B 4.77425e-05
30 *106:12 *267:6 0
31 *258:51 *267:19 0.001521
32 *258:51 *267:25 0
33 *259:61 *3016:B 0.000233463
34 *259:61 *267:36 0
35 *261:16 *267:36 0
36 *265:30 *3014:B1 0
*RES
1 *3013:Y *267:6 21.8334 
2 *267:6 *3018:A2 20 
3 *267:6 *267:19 27.8795 
4 *267:19 *267:25 37.6053 
5 *267:25 *3015:B 40.9682 
6 *267:25 *267:36 3.5638 
7 *267:36 *3016:B 46.1182 
8 *267:36 *267:53 20.5356 
9 *267:53 *3014:B1 23.0488 
10 *267:53 *3017:A2 21.133 
*END

*D_NET *268 0.00256076
*CONN
*I *3019:B I *D sg13g2_xnor2_1
*I *3016:Y O *D sg13g2_nand2_1
*CAP
1 *3019:B 0
2 *3016:Y 0.000439627
3 *268:8 0.000439627
4 *268:8 *3017:A1 0.000180603
5 *268:8 *705:35 0.000181572
6 *3016:B *268:8 0
7 *258:26 *268:8 0.000767831
8 *261:16 *268:8 0.000551503
*RES
1 *3016:Y *268:8 46.5302 
2 *268:8 *3019:B 40 
*END

*D_NET *269 0.0192518
*CONN
*I *3018:B1 I *D sg13g2_a21oi_1
*I *3017:Y O *D sg13g2_a21oi_1
*CAP
1 *3018:B1 0
2 *3017:Y 0
3 *269:14 0.00322019
4 *269:6 0.00322019
5 *269:14 *3017:A1 5.28594e-05
6 *269:14 *346:50 0.0062839
7 *269:14 *632:54 0
8 *269:14 *705:31 0.00300976
9 *269:14 *705:35 0.000824012
10 *8:9 *269:14 0
11 *105:14 *269:14 0
12 *258:51 *269:14 0.00264091
13 *260:26 *269:14 0
*RES
1 *3017:Y *269:6 40 
2 *269:6 *269:14 48.8014 
3 *269:14 *3018:B1 40 
*END

*D_NET *270 0.0611072
*CONN
*I *2989:A3 I *D sg13g2_mux4_1
*I *3358:Q O *D sg13g2_dfrbpq_1
*CAP
1 *2989:A3 8.29711e-05
2 *3358:Q 9.29467e-05
3 *270:44 0.0032972
4 *270:42 0.00373366
5 *270:38 0.000761034
6 *270:32 0.00126057
7 *270:20 0.00614666
8 *270:18 0.00512769
9 *270:16 0.00397586
10 *270:14 0.00420338
11 *270:8 0.000320464
12 *270:8 *414:18 0
13 *270:16 *641:30 0
14 *270:16 *641:104 0
15 *270:20 *414:73 0
16 *270:20 *417:57 0.00390067
17 *270:20 *422:32 0
18 *270:20 *422:38 0
19 *270:20 *422:62 0.000178448
20 *270:20 *429:31 0.000729975
21 *270:20 *429:39 9.6622e-05
22 *270:38 *328:32 0.000301579
23 *270:38 *641:34 0
24 *270:42 *280:14 0.00225881
25 *270:42 *294:26 0
26 *270:42 *584:57 0.00248716
27 *270:44 *3217:RESET_B 0.000608353
28 *270:44 *294:26 0.001302
29 *270:44 *409:25 0.00119378
30 *270:44 *409:31 0.00209864
31 *270:44 *574:8 0
32 *270:44 *584:57 0
33 *270:44 *589:12 0.000447686
34 *270:44 *589:62 0.00197859
35 *270:44 *619:73 0.00103261
36 *270:44 *637:10 0.00284524
37 *270:44 *641:89 0
38 *14:13 *270:16 0
39 *19:11 *270:16 0.00795487
40 *28:10 *270:20 0
41 *38:14 *270:20 0.00144301
42 *139:10 *270:44 0.00034162
43 *241:20 *270:16 0
44 *241:20 *270:32 0.000905058
45 *242:22 *270:20 0
*RES
1 *3358:Q *270:8 40.8446 
2 *270:8 *270:14 42.6986 
3 *270:14 *270:16 54.487 
4 *270:16 *270:18 20 
5 *270:18 *270:20 55.4758 
6 *270:20 *270:32 30.6669 
7 *270:32 *270:38 42.0497 
8 *270:38 *270:42 11.7935 
9 *270:42 *270:44 43.8574 
10 *270:44 *2989:A3 40.7519 
*END

*D_NET *271 0.00911355
*CONN
*I *2931:A I *D sg13g2_inv_1
*I *3359:Q O *D sg13g2_dfrbpq_1
*CAP
1 *2931:A 0
2 *3359:Q 0.000665435
3 *271:12 0.00143629
4 *271:8 0.00210173
5 *271:8 *3359:D 0.00105987
6 *271:8 *347:16 0.000649043
7 *271:8 *350:12 0.000556252
8 *271:8 *523:20 0
9 *271:8 *532:8 0.000288588
10 *271:12 *3072:S 0.00117981
11 *271:12 *294:63 0
12 *271:12 *592:86 0.000919559
13 *271:12 *592:90 9.67976e-05
14 *3354:CLK *271:12 8.00842e-05
15 *3370:A *271:12 0
16 *12:11 *271:8 0
17 *32:12 *271:12 0
18 *67:12 *271:12 8.00842e-05
19 *247:60 *271:12 0
20 *249:8 *271:12 0
*RES
1 *3359:Q *271:8 49.0022 
2 *271:8 *271:12 35.4603 
3 *271:12 *2931:A 20 
*END

*D_NET *272 0.0205929
*CONN
*I *2932:A I *D sg13g2_inv_1
*I *3360:Q O *D sg13g2_dfrbpq_1
*CAP
1 *2932:A 6.46837e-05
2 *3360:Q 0
3 *272:20 0.000831704
4 *272:14 0.00252649
5 *272:12 0.00192244
6 *272:6 0.000162969
7 *272:12 *343:20 0
8 *272:12 *346:10 0
9 *272:14 *422:20 0.00242744
10 *272:14 *422:89 0.00185561
11 *272:14 *562:71 0.00141218
12 *272:14 *617:14 0
13 *272:14 *648:14 0.00751934
14 *272:20 *322:10 0.00174373
15 *272:20 *346:75 0
16 *272:20 *420:14 0
17 *272:20 *592:20 0
18 *246:100 *272:20 0.000126325
*RES
1 *3360:Q *272:6 40 
2 *272:6 *272:12 41.4008 
3 *272:12 *272:14 34.711 
4 *272:14 *272:20 48.2606 
5 *272:20 *2932:A 40.6695 
*END

*D_NET *273 0.0196359
*CONN
*I *2933:A I *D sg13g2_inv_1
*I *3361:Q O *D sg13g2_dfrbpq_1
*CAP
1 *2933:A 0.000219515
2 *3361:Q 0.000410465
3 *273:30 0.00053914
4 *273:24 0.00153584
5 *273:20 0.00202927
6 *273:14 0.000813054
7 *273:10 0.000410465
8 *2933:A *293:41 0
9 *273:10 *297:10 0.00117961
10 *273:10 *347:10 0.000208035
11 *273:10 *351:71 0.0011827
12 *273:20 *623:26 0.000610484
13 *273:20 *698:37 0.0029064
14 *273:20 *699:45 0
15 *273:20 *699:51 0.00130468
16 *273:24 *356:43 0
17 *273:24 *698:37 0
18 *273:24 *699:51 0.00195496
19 *273:30 *583:20 0
20 *273:30 *648:12 1.50092e-05
21 *166:10 *2933:A 0
22 *240:18 *273:24 0.00431629
23 *241:10 *273:30 0
*RES
1 *3361:Q *273:10 46.9422 
2 *273:10 *273:14 40 
3 *273:14 *273:20 33.9874 
4 *273:20 *273:24 39.879 
5 *273:24 *273:30 42.6986 
6 *273:30 *2933:A 42.2197 
*END

*D_NET *274 0.00845802
*CONN
*I *2934:A I *D sg13g2_inv_1
*I *3362:Q O *D sg13g2_dfrbpq_1
*CAP
1 *2934:A 0
2 *3362:Q 0
3 *274:12 0.00138163
4 *274:6 0.00138163
5 *274:12 *277:20 0
6 *274:12 *296:36 0
7 *274:12 *342:12 0
8 *274:12 *342:35 0
9 *274:12 *348:28 0.000177981
10 *274:12 *348:55 0.00230375
11 *274:12 *519:30 0
12 *274:12 *606:56 0
13 *274:12 *610:24 0.000210196
14 *274:12 *657:16 0.00300283
15 *52:12 *274:12 0
16 *243:73 *274:12 0
*RES
1 *3362:Q *274:6 40 
2 *274:6 *274:12 39.055 
3 *274:12 *2934:A 20 
*END

*D_NET *275 0.00628333
*CONN
*I *2947:A I *D sg13g2_and2_1
*I *3363:Q O *D sg13g2_dfrbpq_1
*CAP
1 *2947:A 0.000157241
2 *3363:Q 0.000954691
3 *275:18 0.000656193
4 *275:10 0.00145364
5 *2947:A *2947:B 4.77702e-05
6 *2947:A *297:46 1.54556e-05
7 *2947:A *606:48 0.000242281
8 *2947:A *610:48 0
9 *275:10 *287:8 0
10 *275:10 *292:10 0.000305192
11 *275:10 *679:32 0
12 *275:10 *697:28 0
13 *275:18 *519:44 0.000663386
14 *275:18 *580:18 0.000274737
15 uio_oe[6] *275:18 0
16 uio_oe[7] *275:18 0
17 *3587:A *275:10 0
18 *7:9 *275:18 0
19 *68:19 *275:10 0
20 *74:20 *275:10 0
21 *242:18 *275:10 0.00117309
22 *249:18 *275:18 0.000339651
*RES
1 *3363:Q *275:10 49.3215 
2 *275:10 *275:18 45.5208 
3 *275:18 *2947:A 41.6171 
*END

*D_NET *276 0.00368058
*CONN
*I *2948:A I *D sg13g2_and2_1
*I *3364:Q O *D sg13g2_dfrbpq_1
*CAP
1 *2948:A 0.000264779
2 *3364:Q 0.000660025
3 *276:12 0.000924803
4 *2948:A *3364:D 4.78578e-05
5 *2948:A *348:44 8.00842e-05
6 *2948:A *606:48 0.000144823
7 *2948:A *610:48 0.0001122
8 *276:12 *3364:RESET_B 0.00065833
9 *276:12 *297:36 0.000552577
10 *276:12 *345:87 0
11 *276:12 *348:44 0
12 *276:12 *609:95 0
13 *276:12 *624:88 0.000235107
14 *276:12 *624:92 0
*RES
1 *3364:Q *276:12 47.1997 
2 *276:12 *2948:A 42.7192 
*END

*D_NET *277 0.0117048
*CONN
*I *2949:A I *D sg13g2_and2_1
*I *3365:Q O *D sg13g2_dfrbpq_1
*CAP
1 *2949:A 0
2 *3365:Q 0.000715187
3 *277:28 0.000216079
4 *277:20 0.00259425
5 *277:10 0.00309335
6 *277:10 *3356:RESET_B 0
7 *277:10 *3357:RESET_B 0.000208035
8 *277:10 *493:24 0
9 *277:10 *522:63 0.000628819
10 *277:20 *2963:B 0
11 *277:20 *3326:RESET_B 0.00027444
12 *277:20 *298:28 0.0014386
13 *277:20 *342:12 0
14 *277:20 *493:24 0
15 *277:20 *503:8 0
16 *277:20 *508:30 8.02269e-05
17 *277:20 *606:48 0
18 *277:20 *606:56 0.000533654
19 *277:20 *623:106 0.000306754
20 *277:20 *625:77 0
21 *277:20 *625:91 4.77425e-05
22 *277:20 *679:63 0
23 *277:20 *690:10 0.000907668
24 *277:28 *520:28 0.000143571
25 *277:28 *606:56 0
26 *2938:S *277:20 0.00037154
27 *3353:D *277:20 0
28 *12:11 *277:28 0
29 *51:54 *277:10 0
30 *51:54 *277:20 0
31 *243:61 *277:20 0.000144843
32 *244:10 *277:20 0
33 *274:12 *277:20 0
*RES
1 *3365:Q *277:10 47.0349 
2 *277:10 *277:20 44.4213 
3 *277:20 *277:28 41.8128 
4 *277:28 *2949:A 20 
*END

*D_NET *278 0.00492179
*CONN
*I *2950:A I *D sg13g2_and2_1
*I *3344:Q O *D sg13g2_dfrbpq_1
*CAP
1 *2950:A 0.00029447
2 *3344:Q 0.000226391
3 *278:18 0.000856601
4 *278:10 0.000788522
5 *2950:A *343:36 0.000433011
6 *2950:A *583:113 0.000175693
7 *2950:A *615:14 0
8 *278:10 *3318:D 0.000336795
9 *278:10 *363:18 0.000208035
10 *278:10 *376:24 4.75151e-05
11 *278:18 *3154:B 0.000112246
12 *278:18 *3318:D 0
13 *278:18 *3522:A 0.000240478
14 *278:18 *355:25 0.000240231
15 *278:18 *615:14 0.000305016
16 uo_out[4] *278:10 0.000336795
17 uo_out[6] *278:18 0.000176083
18 *3340:CLK *2950:A 0.000143908
*RES
1 *3344:Q *278:10 42.987 
2 *278:10 *278:18 45.4899 
3 *278:18 *2950:A 43.2651 
*END

*D_NET *279 0.00983986
*CONN
*I *2951:A I *D sg13g2_and2_1
*I *3345:Q O *D sg13g2_dfrbpq_1
*CAP
1 *2951:A 0
2 *3345:Q 0.000538354
3 *279:20 0.000850807
4 *279:12 0.00177205
5 *279:8 0.0014596
6 *279:8 *363:18 0
7 *279:8 *595:12 0.00129512
8 *279:12 *422:62 0.000636095
9 *279:12 *436:30 0
10 *279:20 *343:36 0
11 *279:20 *424:20 0
12 *279:20 *559:22 0
13 *279:20 *565:8 0.00139265
14 *279:20 *608:18 0.000288826
15 *279:20 *608:20 7.46936e-05
16 *279:20 *612:84 0
17 *279:20 *618:10 0
18 *34:16 *279:12 0
19 *38:14 *279:12 0.00153167
20 *252:22 *279:12 0
*RES
1 *3345:Q *279:8 46.0358 
2 *279:8 *279:12 30.2691 
3 *279:12 *279:20 49.5069 
4 *279:20 *2951:A 20 
*END

*D_NET *280 0.0142414
*CONN
*I *2952:A I *D sg13g2_and2_1
*I *3346:Q O *D sg13g2_dfrbpq_1
*CAP
1 *2952:A 3.32967e-05
2 *3346:Q 3.68563e-05
3 *280:14 0.00186578
4 *280:8 0.00186934
5 *2952:A *3597:A 5.38152e-05
6 *280:14 *3528:A 0
7 *280:14 *294:26 0.00464161
8 *280:14 *376:34 0.000546231
9 *280:14 *567:12 0
10 *280:14 *584:57 0
11 *280:14 *608:10 0.00171423
12 *280:14 *622:10 0.000490951
13 *280:14 *622:37 0.000212344
14 *280:14 *641:50 0.000339336
15 *25:26 *2952:A 5.39578e-05
16 *40:10 *280:14 0.000124824
17 *270:42 *280:14 0.00225881
*RES
1 *3346:Q *280:8 40.3193 
2 *280:8 *280:14 30.1893 
3 *280:14 *2952:A 40.3657 
*END

*D_NET *281 0.0180934
*CONN
*I *2953:A I *D sg13g2_and2_1
*I *3347:Q O *D sg13g2_dfrbpq_1
*CAP
1 *2953:A 0.000699095
2 *3347:Q 0
3 *281:28 0.00143966
4 *281:20 0.0038463
5 *281:6 0.00310574
6 *2953:A *3306:RESET_B 0.000729412
7 *2953:A *366:60 0.000531333
8 *2953:A *376:34 4.75425e-05
9 *2953:A *568:8 0
10 *281:20 *3133:A0 0
11 *281:20 *300:119 0
12 *281:20 *354:12 0
13 *281:20 *370:12 0
14 *281:20 *511:30 0.00135093
15 *281:20 *512:10 0
16 *281:20 *551:10 0.001413
17 *281:20 *684:12 0.000501057
18 *281:28 *366:60 0.000112541
19 *281:28 *570:14 0.000181192
20 *281:28 *611:31 0.000175693
21 *281:28 *611:37 8.01995e-05
22 uo_out[1] *281:20 0.00121893
23 *13:21 *2953:A 0.000143494
24 *29:8 *281:20 7.48209e-05
25 *29:24 *281:28 0.00101465
26 *34:12 *281:20 0.00103306
27 *84:8 *281:20 0
28 *220:8 *281:20 0.000394738
*RES
1 *3347:Q *281:6 40 
2 *281:6 *281:20 35.9779 
3 *281:20 *281:28 47.6529 
4 *281:28 *2953:A 47.2615 
*END

*D_NET *282 0.0485144
*CONN
*I *3619:A I *D sg13g2_buf_16
*I *2989:A0 I *D sg13g2_mux4_1
*I *3628:clk0_out O *D multimode_dll
*CAP
1 *3619:A 0
2 *2989:A0 7.9984e-05
3 *3628:clk0_out 0.000245179
4 *282:46 0.00233705
5 *282:36 0.0113209
6 *282:34 0.0089838
7 *282:23 0.00205259
8 *282:19 0.00258858
9 *282:9 0.000861146
10 *2989:A0 *2989:S0 4.77425e-05
11 *2989:A0 *3219:RESET_B 0
12 *282:9 *3628:bias 0
13 *282:9 *3628:clk0_phase_sel[4] 0
14 *282:9 *3628:mode_xor[2] 0.000223523
15 *282:19 *3057:A0 8.00842e-05
16 *282:19 *3057:A1 0.000181279
17 *282:19 *3057:S 4.77425e-05
18 *282:19 *3628:bias 0
19 *282:19 *3628:mode_xor[2] 0.000595808
20 *282:19 *329:10 0
21 *282:19 *387:10 0.000393736
22 *282:19 *412:18 7.52158e-05
23 *282:19 *596:64 8.00842e-05
24 *282:23 *3199:RESET_B 0.000372885
25 *282:23 *3622:D 0
26 *282:23 *283:19 0
27 *282:23 *329:10 0
28 *282:23 *405:16 0
29 *282:23 *409:12 0.00520709
30 *282:23 *634:31 0.00140757
31 *282:23 *636:14 0.000555322
32 *282:36 *3409:A 0
33 *282:36 *3412:A 0
34 *282:36 *291:279 0
35 *282:36 *302:10 0
36 *282:36 *316:8 0
37 *282:36 *388:21 0
38 *282:36 *390:29 0
39 *282:36 *597:84 0
40 *282:36 *599:75 0
41 *282:36 *599:77 0
42 *282:36 *605:75 0.0086296
43 *282:36 *605:77 0.00135679
44 *282:36 *605:83 0.000342629
45 *282:46 *3620:A 0
46 analog_pin0 *282:46 0
47 *252:8 *282:23 0.0004481
*RES
1 *3628:clk0_out *282:9 2.52607 
2 *282:9 *282:19 47.0143 
3 *282:19 *282:23 48.7782 
4 *282:23 *2989:A0 40.7519 
5 *282:9 *282:34 20 
6 *282:34 *282:36 121.231 
7 *282:36 *282:46 49.7052 
8 *282:46 *3619:A 20 
*END

*D_NET *283 0.0496584
*CONN
*I *3620:A I *D sg13g2_buf_16
*I *2991:A1 I *D sg13g2_a22oi_1
*I *3628:clk1_out O *D multimode_dll
*CAP
1 *3620:A 0.000670158
2 *2991:A1 0
3 *3628:clk1_out 0.000564664
4 *283:34 0.0129883
5 *283:32 0.0133526
6 *283:19 0.00174801
7 *283:9 0.00334713
8 *283:9 *3541:A 0.000371552
9 *283:9 *3628:clk0_phase_sel[0] 0
10 *283:9 *284:9 0
11 *283:19 *3214:RESET_B 0
12 *283:19 *3623:GATE 0.000154971
13 *283:19 *329:10 0.000212543
14 *283:19 *329:16 0.000128576
15 *283:19 *403:8 0
16 *283:19 *634:54 0
17 *283:19 *634:58 0
18 *283:32 *3055:A1 0
19 *283:32 *3628:f_clk1_divider[4] 0.000820896
20 *283:32 *330:22 0.00189234
21 *283:32 *387:10 0.00145687
22 *283:32 *637:40 7.53228e-05
23 *283:32 *637:55 0
24 *283:34 *3055:A1 0
25 *283:34 *3628:f_clk2_divider[3] 0.00140748
26 *283:34 *302:10 0
27 *283:34 *329:10 0
28 *283:34 *330:8 0
29 *283:34 *330:12 0
30 *283:34 *330:22 0
31 *283:34 *333:10 0
32 *283:34 *333:14 0.00124939
33 *283:34 *333:16 0.0023686
34 *283:34 *333:22 0.00103468
35 *283:34 *334:28 0
36 *283:34 *334:34 0
37 *283:34 *391:10 0.00176375
38 *283:34 *391:18 0.00124906
39 *283:34 *410:10 0
40 *283:34 *646:69 0.00280151
41 *250:57 *283:19 0
42 *252:8 *283:19 0
43 *282:23 *283:19 0
44 *282:46 *3620:A 0
*RES
1 *3628:clk1_out *283:9 5.80662 
2 *283:9 *283:19 35.0586 
3 *283:19 *2991:A1 40 
4 *283:9 *283:32 35.2543 
5 *283:32 *283:34 143.973 
6 *283:34 *3620:A 47.2409 
*END

*D_NET *284 0.00412447
*CONN
*I *2993:A1 I *D sg13g2_a22oi_1
*I *3628:clk2_out O *D multimode_dll
*CAP
1 *2993:A1 0.000187379
2 *3628:clk2_out 0.0012011
3 *284:9 0.00138848
4 *2993:A1 *2995:A1 0
5 *2993:A1 *2997:A1 0
6 *284:9 *3628:f_clk1_divider[3] 0
7 *284:9 *385:86 0.000876202
8 *284:9 *386:19 0
9 *284:9 *400:38 0.000471309
10 *2993:A2 *2993:A1 0
11 *283:9 *284:9 0
*RES
1 *3628:clk2_out *284:9 34.7882 
2 *284:9 *2993:A1 41.8334 
*END

*D_NET *285 0.0160172
*CONN
*I *3373:A I *D sg13g2_buf_16
*I *3627:clk_delayed O *D delay_line
*CAP
1 *3373:A 0
2 *3627:clk_delayed 5.67997e-05
3 *285:18 0.00437017
4 *285:16 0.00570328
5 *285:12 0.00358164
6 *285:5 0.00230534
7 *285:5 *3627:trim[23] 0
8 *285:12 *3627:trim[23] 0
9 *285:12 *469:14 0
10 *285:12 *645:32 0
11 *285:16 *291:186 0
12 *285:18 *3028:A0 0
13 *285:18 *459:25 0
14 *285:18 *605:25 0
15 *285:18 *607:41 0
16 *285:18 *647:41 0
17 *185:10 *285:12 0
*RES
1 *3627:clk_delayed *285:5 0.7931 
2 *285:5 *285:12 46.059 
3 *285:12 *285:16 33.081 
4 *285:16 *285:18 55.9702 
5 *285:18 *3373:A 40 
*END

*D_NET *286 0.00194842
*CONN
*I *3374:A I *D sg13g2_buf_16
*I *3439:X O *D sg13g2_buf_16
*CAP
1 *3374:A 9.83466e-05
2 *3439:X 0.000110639
3 *286:19 0.000863572
4 *286:6 0.000875864
5 *286:6 *3628:f_clk0_divider[3] 0
6 *286:19 *3628:f_clk0_divider[3] 0
7 *286:19 *291:11 0
8 *286:19 *291:172 0
9 *286:19 *332:34 0
10 *3191:D *286:19 0
11 *115:10 *3374:A 0
12 *115:10 *286:19 0
*RES
1 *3439:X *286:6 20.9682 
2 *286:6 *286:19 47.5859 
3 *286:19 *3374:A 20.8601 
*END

*D_NET *287 0.00232241
*CONN
*I *3375:A I *D sg13g2_buf_16
*I *3370:X O *D sg13g2_buf_16
*CAP
1 *3375:A 0.000134386
2 *3370:X 0.000199552
3 *287:27 0.000961651
4 *287:8 0.00102682
5 *3375:A *429:20 0
6 *3375:A *649:10 0
7 *287:8 *292:10 0
8 *287:8 *697:28 0
9 *287:27 *292:10 0
10 *287:27 *429:20 0
11 *287:27 *592:86 0
12 *287:27 *624:88 0
13 *287:27 *649:10 0
14 *287:27 *697:28 0
15 uio_oe[7] *287:27 0
16 *249:12 *287:27 0
17 *275:10 *287:8 0
*RES
1 *3370:X *287:8 21.8901 
2 *287:8 *287:27 47.1534 
3 *287:27 *3375:A 21.1845 
*END

*D_NET *288 0.0167614
*CONN
*I *3376:A I *D sg13g2_buf_16
*I *3378:A I *D sg13g2_buf_16
*I *3371:X O *D sg13g2_buf_16
*CAP
1 *3376:A 0.00013927
2 *3378:A 5.7361e-05
3 *3371:X 6.71523e-05
4 *288:61 0.00110924
5 *288:41 0.0046314
6 *288:21 0.00403516
7 *288:17 0.00348552
8 *288:8 0.0032363
9 *3376:A *293:41 0
10 *3376:A *420:44 0
11 *288:8 *506:8 0
12 *288:17 *3226:CLK 0
13 *288:17 *3489:A 0
14 *288:17 *291:73 0
15 *288:17 *291:75 0
16 *288:17 *295:10 0
17 *288:17 *295:16 0
18 *288:17 *310:28 0
19 *288:17 *319:12 0
20 *288:17 *506:14 0
21 *288:21 *291:73 0
22 *288:21 *318:31 0
23 *288:21 *322:33 0
24 *288:41 *3063:A0 0
25 *288:41 *291:58 0
26 *288:41 *291:73 0
27 *288:41 *309:12 0
28 *288:41 *322:33 0
29 *288:41 *346:75 0
30 *288:41 *522:10 0
31 *288:41 *583:195 0
32 *288:41 *607:14 0
33 *288:41 *624:10 0
34 *288:41 *626:10 0
35 *288:41 *626:18 0
36 *288:41 *627:10 0
37 *288:41 *629:12 0
38 *288:41 *692:69 0
39 *288:41 *704:58 0
40 *288:41 *706:67 0
41 *288:61 *420:14 0
42 *288:61 *420:44 0
43 *288:61 *533:10 0
44 *288:61 *607:20 0
45 *3242:D *288:61 0
46 *6:14 *288:17 0
47 *151:8 *288:41 0
48 *235:28 *288:61 0
49 *247:12 *288:41 0
50 *257:30 *288:41 0
51 *258:10 *288:41 0
52 *259:22 *288:17 0
53 *262:16 *288:17 0
*RES
1 *3371:X *288:8 40.5356 
2 *288:8 *288:17 46.2547 
3 *288:17 *288:21 22.575 
4 *288:21 *3378:A 40.5356 
5 *288:21 *288:41 48.7067 
6 *288:41 *288:61 48.7344 
7 *288:61 *3376:A 21.1845 
*END

*D_NET *289 0.00541606
*CONN
*I *3379:A I *D sg13g2_buf_16
*I *3470:A I *D sg13g2_buf_16
*I *3372:X O *D sg13g2_buf_16
*CAP
1 *3379:A 8.12777e-05
2 *3470:A 0
3 *3372:X 0.000171722
4 *289:41 0.000651314
5 *289:35 0.00147235
6 *289:15 0.00188499
7 *289:6 0.00115441
8 *3379:A *345:18 0
9 *3379:A *347:10 0
10 *289:6 *317:16 0
11 *289:6 *489:23 0
12 *289:15 *317:16 0
13 *289:15 *346:16 0
14 *289:15 *351:20 0
15 *289:15 *489:6 0
16 *289:15 *489:23 0
17 *289:35 *3628:ext_trim[1] 0
18 *289:41 *345:18 0
19 *289:41 *347:10 0
20 *289:41 *431:23 0
21 *289:41 *529:14 0
22 uio_oe[6] *289:15 0
23 *6:32 *289:35 0
24 *6:32 *289:41 0
*RES
1 *3372:X *289:6 21.3725 
2 *289:6 *289:15 28.0211 
3 *289:15 *3470:A 40 
4 *289:15 *289:35 48.7138 
5 *289:35 *289:41 25.5826 
6 *289:41 *3379:A 20.9682 
*END

*D_NET *290 0.0204944
*CONN
*I *3382:A I *D sg13g2_buf_16
*I *3383:A I *D sg13g2_buf_16
*I *3380:A I *D sg13g2_buf_16
*I *3381:A I *D sg13g2_buf_16
*I *3373:X O *D sg13g2_buf_16
*CAP
1 *3382:A 3.39844e-05
2 *3383:A 9.86087e-05
3 *3380:A 0
4 *3381:A 0.000165483
5 *3373:X 8.37605e-05
6 *290:59 0.000969003
7 *290:43 0.00182072
8 *290:41 0.00438998
9 *290:35 0.00272588
10 *290:19 0.000528063
11 *290:17 0.00147941
12 *290:13 0.0041198
13 *290:8 0.00407974
14 *3381:A *298:112 0
15 *290:13 *3028:A0 0
16 *290:13 *3029:A0 0
17 *290:13 *3544:A 0
18 *290:13 *291:28 0
19 *290:13 *385:22 0
20 *290:13 *598:97 0
21 *290:13 *598:116 0
22 *290:13 *641:130 0
23 *290:19 *298:112 0
24 *290:35 *385:22 0
25 *290:35 *385:28 0
26 *290:35 *500:15 0
27 *290:41 *3021:A1 0
28 *290:41 *385:28 0
29 *290:41 *393:28 0
30 *290:41 *404:37 0
31 *290:41 *415:36 0
32 *290:41 *499:17 0
33 *290:41 *500:15 0
34 *290:41 *598:25 0
35 *290:41 *598:33 0
36 *290:43 *356:47 0
37 *290:43 *385:34 0
38 *290:43 *435:22 0
39 *290:43 *499:17 0
40 *290:43 *591:62 0
41 *290:43 *598:25 0
42 *290:43 *600:8 0
43 *290:43 *600:24 0
44 *290:43 *630:37 0
45 *290:43 *698:45 0
46 *290:59 *3021:A0 0
47 *290:59 *3021:S 0
48 *290:59 *598:25 0
49 *290:59 *599:12 0
50 *112:14 *290:35 0
*RES
1 *3373:X *290:8 40.7519 
2 *290:8 *290:13 35.4526 
3 *290:13 *290:17 20.9682 
4 *290:17 *290:19 3.1312 
5 *290:19 *3381:A 21.7819 
6 *290:17 *290:35 28.0134 
7 *290:35 *290:41 14.1213 
8 *290:41 *290:43 16.4182 
9 *290:43 *3380:A 40 
10 *290:41 *290:59 28.858 
11 *290:59 *3383:A 20.9682 
12 *290:35 *3382:A 40.3193 
*END

*D_NET *291 0.0639706
*CONN
*I *3388:A I *D sg13g2_buf_8
*I *3389:A I *D sg13g2_buf_8
*I *3390:A I *D sg13g2_buf_8
*I *3386:A I *D sg13g2_buf_8
*I *3398:A I *D sg13g2_buf_8
*I *3399:A I *D sg13g2_buf_8
*I *3385:A I *D sg13g2_buf_8
*I *3387:A I *D sg13g2_buf_8
*I *3397:A I *D sg13g2_buf_8
*I *3392:A I *D sg13g2_buf_8
*I *3395:A I *D sg13g2_buf_8
*I *3384:A I *D sg13g2_buf_8
*I *3391:A I *D sg13g2_buf_8
*I *3394:A I *D sg13g2_buf_8
*I *3393:A I *D sg13g2_buf_8
*I *3396:A I *D sg13g2_buf_8
*I *3374:X O *D sg13g2_buf_16
*CAP
1 *3388:A 6.68694e-05
2 *3389:A 0
3 *3390:A 0
4 *3386:A 0
5 *3398:A 0
6 *3399:A 9.87419e-05
7 *3385:A 5.4152e-05
8 *3387:A 0
9 *3397:A 0
10 *3392:A 2.90202e-05
11 *3395:A 0
12 *3384:A 0
13 *3391:A 0.000144193
14 *3394:A 0.000145488
15 *3393:A 0
16 *3396:A 0
17 *3374:X 0
18 *291:279 0.000388559
19 *291:270 0.000289817
20 *291:268 3.29292e-05
21 *291:264 0.000639779
22 *291:259 0.000701546
23 *291:257 0.000153097
24 *291:251 0.0003573
25 *291:246 0.000298899
26 *291:237 0.00013048
27 *291:233 0.000615223
28 *291:220 0.000622726
29 *291:218 0.000277261
30 *291:214 0.000320665
31 *291:210 0.000747948
32 *291:194 0.00133253
33 *291:188 0.00132493
34 *291:186 0.00475546
35 *291:174 0.00420922
36 *291:172 0.00588853
37 *291:134 0.00121219
38 *291:125 0.00118508
39 *291:123 0.000242246
40 *291:119 0.000877776
41 *291:113 0.00101593
42 *291:99 0.00139222
43 *291:89 0.00229848
44 *291:75 8.77231e-05
45 *291:73 0.00302129
46 *291:64 0.00222895
47 *291:62 0.000112822
48 *291:58 0.00341692
49 *291:56 0.00547807
50 *291:45 0.00221246
51 *291:34 0.00015131
52 *291:30 0.000366078
53 *291:28 0.0044412
54 *291:22 0.0043103
55 *291:15 0.000235176
56 *291:11 0.00597379
57 *291:6 8.52581e-05
58 *3385:A *333:6 0
59 *3388:A *3447:A 0
60 *3391:A *508:6 0
61 *3399:A *3412:A 0
62 *3399:A *337:8 0
63 *291:11 *3026:A1 0
64 *291:22 *470:14 0
65 *291:28 *3028:A0 0
66 *291:28 *385:22 0
67 *291:28 *605:25 0
68 *291:28 *641:118 0
69 *291:56 *3405:A 0
70 *291:58 *3017:B1 0
71 *291:58 *300:10 0
72 *291:58 *624:10 0
73 *291:58 *626:10 0
74 *291:58 *626:18 0
75 *291:58 *627:10 0
76 *291:58 *631:12 0
77 *291:58 *632:14 0
78 *291:58 *706:59 0
79 *291:73 *310:28 0
80 *291:73 *318:31 0
81 *291:73 *343:8 0
82 *291:73 *630:92 0
83 *291:73 *704:20 0
84 *291:73 *704:26 0
85 *291:73 *704:58 0
86 *291:73 *708:49 0
87 *291:75 *704:26 0
88 *291:89 *295:25 0
89 *291:89 *312:8 0
90 *291:89 *704:26 0
91 *291:99 *297:10 0
92 *291:99 *639:22 0
93 *291:113 *422:24 0
94 *291:119 *348:84 0
95 *291:119 *629:67 0
96 *291:119 *706:18 0
97 *291:119 *708:18 0
98 *291:125 *639:32 0
99 *291:134 *508:6 0
100 *291:172 *3026:A1 0
101 *291:172 *448:23 0
102 *291:172 *647:41 0
103 *291:186 *332:20 0
104 *291:186 *336:16 0
105 *291:188 *3447:A 0
106 *291:188 *305:8 0
107 *291:188 *332:20 0
108 *291:194 *337:88 0
109 *291:194 *338:19 0
110 *291:210 *3416:A 0
111 *291:210 *304:6 0
112 *291:210 *307:6 0
113 *291:210 *337:88 0
114 *291:210 *338:19 0
115 *291:214 *3416:A 0
116 *291:214 *307:6 0
117 *291:218 *3416:A 0
118 *291:218 *306:12 0
119 *291:218 *307:6 0
120 *291:220 *3420:A 0
121 *291:220 *306:12 0
122 *291:220 *307:6 0
123 *291:233 *3415:A 0
124 *291:233 *3420:A 0
125 *291:233 *303:8 0
126 *291:233 *333:6 0
127 *291:237 *3415:A 0
128 *291:237 *333:6 0
129 *291:251 *303:8 0
130 *291:257 *334:20 0
131 *291:257 *337:8 0
132 *291:259 *334:20 0
133 *291:259 *337:8 0
134 *291:264 *331:6 0
135 *291:264 *334:20 0
136 *291:264 *337:8 0
137 *291:279 *337:8 0
138 *3196:D *291:45 0
139 *6:26 *291:119 0
140 *17:21 *291:58 0
141 *20:27 *291:58 0
142 *31:20 *3391:A 0
143 *31:20 *291:134 0
144 *75:8 *291:58 0
145 *112:14 *291:45 0
146 *112:14 *291:56 0
147 *237:10 *291:58 0
148 *243:14 *291:113 0
149 *243:14 *291:119 0
150 *282:36 *291:279 0
151 *285:16 *291:186 0
152 *286:19 *291:11 0
153 *286:19 *291:172 0
154 *288:17 *291:73 0
155 *288:17 *291:75 0
156 *288:21 *291:73 0
157 *288:41 *291:58 0
158 *288:41 *291:73 0
159 *290:13 *291:28 0
*RES
1 *3374:X *291:6 40 
2 *291:6 *291:11 0.8446 
3 *291:11 *291:15 20 
4 *291:15 *291:22 22.266 
5 *291:22 *291:28 40.3245 
6 *291:28 *291:30 3.3166 
7 *291:30 *291:34 20 
8 *291:34 *3396:A 20 
9 *291:34 *291:45 1.6686 
10 *291:45 *291:56 43.8239 
11 *291:56 *291:58 30.2614 
12 *291:58 *291:62 20 
13 *291:62 *291:64 0.7519 
14 *291:64 *291:73 37.6704 
15 *291:73 *291:75 0.8446 
16 *291:75 *3393:A 40 
17 *291:73 *291:89 26.1594 
18 *291:89 *291:99 49.5481 
19 *291:99 *3394:A 21.1845 
20 *291:89 *291:113 21.8334 
21 *291:113 *291:119 25.768 
22 *291:119 *291:123 0.9682 
23 *291:123 *291:125 0.9682 
24 *291:125 *291:134 8.5593 
25 *291:134 *3391:A 21.1845 
26 *291:123 *3384:A 20 
27 *291:113 *3395:A 40 
28 *291:62 *3392:A 20.2313 
29 *291:28 *3397:A 40 
30 *291:11 *291:172 57.4534 
31 *291:172 *291:174 20 
32 *291:174 *291:186 43.4454 
33 *291:186 *291:188 6.7465 
34 *291:188 *291:194 28.549 
35 *291:194 *3387:A 40 
36 *291:194 *291:210 26.7259 
37 *291:210 *291:214 1.1845 
38 *291:214 *291:218 1.9364 
39 *291:218 *291:220 0.9682 
40 *291:220 *291:233 46.4581 
41 *291:233 *291:237 0.7519 
42 *291:237 *3385:A 20.5356 
43 *291:237 *291:246 20 
44 *291:246 *291:251 3.3166 
45 *291:251 *291:257 20.5356 
46 *291:257 *291:259 0.8549 
47 *291:259 *291:264 5.253 
48 *291:264 *291:268 0.2575 
49 *291:268 *291:270 20 
50 *291:270 *291:279 23.296 
51 *291:279 *3399:A 20.9682 
52 *291:268 *3398:A 20 
53 *291:257 *3386:A 20 
54 *291:218 *3390:A 20 
55 *291:214 *3389:A 20 
56 *291:188 *3388:A 20.8446 
*END

*D_NET *292 0.00598169
*CONN
*I *2967:B I *D sg13g2_nor2_1
*I *3375:X O *D sg13g2_buf_16
*CAP
1 *2967:B 0
2 *3375:X 0.00256598
3 *292:10 0.00256598
4 *292:10 *3147:A 0
5 *292:10 *3168:B 0
6 *292:10 *3343:RESET_B 0
7 *292:10 *3367:RESET_B 0
8 *292:10 *297:26 0
9 *292:10 *431:56 0.000304992
10 *292:10 *508:20 0
11 *292:10 *533:40 0
12 *292:10 *583:60 0
13 *292:10 *623:89 0
14 *292:10 *623:100 0
15 *292:10 *624:88 0.000111568
16 *292:10 *697:28 0
17 *3354:D *292:10 0.000127969
18 *238:22 *292:10 0
19 *238:30 *292:10 0
20 *245:24 *292:10 0
21 *246:39 *292:10 0
22 *247:60 *292:10 0
23 *275:10 *292:10 0.000305192
24 *287:8 *292:10 0
25 *287:27 *292:10 0
*RES
1 *3375:X *292:10 44.2565 
2 *292:10 *2967:B 20 
*END

*D_NET *293 0.0284485
*CONN
*I *2965:A I *D sg13g2_inv_1
*I *2966:A I *D sg13g2_inv_1
*I *3376:X O *D sg13g2_buf_16
*CAP
1 *2965:A 0
2 *2966:A 0
3 *3376:X 0
4 *293:41 0.00123984
5 *293:28 0.000550567
6 *293:22 0.00692911
7 *293:12 0.00647249
8 *293:6 0.00133379
9 *293:22 *298:12 0.0073456
10 *293:22 *414:32 0
11 *293:22 *436:20 0.000130504
12 *293:22 *533:20 0
13 *293:22 *641:30 2.51717e-05
14 *293:41 *3078:A0 4.77425e-05
15 *293:41 *3242:CLK 0.000917884
16 *293:41 *328:92 0.00113933
17 *293:41 *499:8 0
18 *293:41 *631:26 0
19 *293:41 *631:33 0
20 *2933:A *293:41 0
21 *3376:A *293:41 0
22 *14:17 *293:12 0.000140972
23 *20:13 *293:22 0
24 *20:21 *293:12 0.000140883
25 *31:12 *293:22 0
26 *51:29 *293:28 0
27 *166:10 *293:41 0.000128662
28 *241:20 *293:22 0.00190598
*RES
1 *3376:X *293:6 40 
2 *293:6 *293:12 40.9682 
3 *293:12 *293:22 49.7036 
4 *293:22 *293:28 44.429 
5 *293:28 *2966:A 40 
6 *293:6 *293:41 33.184 
7 *293:41 *2965:A 20 
*END

*D_NET *294 0.0463206
*CONN
*I *3432:A I *D sg13g2_buf_8
*I *3438:A I *D sg13g2_buf_8
*I *3436:A I *D sg13g2_buf_8
*I *3437:A I *D sg13g2_buf_8
*I *3377:X O *D sg13g2_buf_16
*CAP
1 *3432:A 0
2 *3438:A 0
3 *3436:A 0
4 *3437:A 0.000280436
5 *3377:X 0.000613891
6 *294:63 0.00231221
7 *294:41 0.00136424
8 *294:30 0.00170094
9 *294:26 0.00182906
10 *294:24 0.00192901
11 *294:20 0.00158008
12 *294:10 0.00434998
13 *3437:A *326:40 0
14 *3437:A *590:61 0
15 *294:10 *3306:CLK 5.15366e-05
16 *294:10 *342:94 0.00118003
17 *294:10 *579:50 0
18 *294:10 *587:24 0.000339977
19 *294:10 *595:73 0.000176396
20 *294:20 *3306:CLK 0.000338907
21 *294:20 *572:30 0.000240789
22 *294:20 *618:10 0.000144768
23 *294:20 *618:49 0.000512734
24 *294:26 *2980:S 0.000446761
25 *294:26 *3528:A 0.000492764
26 *294:26 *376:34 0.000229222
27 *294:26 *574:8 0.00311579
28 *294:26 *582:39 0.000653651
29 *294:26 *584:51 0
30 *294:26 *586:61 0
31 *294:26 *595:12 0
32 *294:26 *663:10 0
33 *294:41 *362:24 0.00156858
34 *294:41 *574:8 0.0057818
35 *294:41 *595:18 0.00188959
36 *294:41 *619:64 0.000822186
37 *294:63 *3155:B 0.000984295
38 *294:63 *3319:CLK 0.000594137
39 *294:63 *3321:CLK 0.000369595
40 *294:63 *3341:RESET_B 3.23417e-05
41 *294:63 *300:69 0.000981244
42 *294:63 *300:77 0.000658679
43 *294:63 *300:85 7.91215e-05
44 *294:63 *345:87 0
45 *294:63 *424:39 4.77425e-05
46 *294:63 *582:127 0
47 *294:63 *615:14 0.000144768
48 *294:63 *616:20 0
49 *294:63 *618:55 0
50 *294:63 *618:82 0.000369484
51 *294:63 *677:12 0
52 *294:63 *695:16 0
53 uio_out[2] *294:10 0
54 uio_out[2] *294:20 0
55 *29:24 *294:20 0.000967254
56 *29:24 *294:24 0.000208035
57 *39:34 *294:20 0
58 *40:10 *294:26 0.000125139
59 *47:10 *294:26 0.000869875
60 *270:42 *294:26 0
61 *270:44 *294:26 0.001302
62 *271:12 *294:63 0
63 *280:14 *294:26 0.00464161
*RES
1 *3377:X *294:10 46.9731 
2 *294:10 *294:20 33.8535 
3 *294:20 *294:24 21.4008 
4 *294:24 *294:26 32.239 
5 *294:26 *294:30 20.5356 
6 *294:30 *3437:A 22.266 
7 *294:30 *294:41 46.8006 
8 *294:41 *3436:A 40 
9 *294:20 *3438:A 20 
10 *294:10 *294:63 44.4831 
11 *294:63 *3432:A 20 
*END

*D_NET *295 0.0106345
*CONN
*I *3170:CLK I *D sg13g2_dfrbpq_1
*I *3451:A I *D sg13g2_inv_1
*I *3378:X O *D sg13g2_buf_16
*CAP
1 *3170:CLK 0
2 *3451:A 0
3 *3378:X 0.000500066
4 *295:25 0.00134949
5 *295:16 0.00211341
6 *295:10 0.00396297
7 *295:10 *3464:A 0
8 *295:10 *310:28 0.000551176
9 *295:16 *3464:A 0
10 *295:16 *668:27 0
11 *295:16 *673:10 0.000127825
12 *295:25 *348:84 0
13 *295:25 *704:26 0
14 *6:14 *295:16 0
15 *6:48 *295:16 0
16 *75:22 *295:16 0.000466728
17 *103:10 *295:10 0
18 *259:22 *295:16 0.00156279
19 *288:17 *295:10 0
20 *288:17 *295:16 0
21 *291:89 *295:25 0
*RES
1 *3378:X *295:10 45.3045 
2 *295:10 *295:16 40.5382 
3 *295:16 *3451:A 20 
4 *295:10 *295:25 30.4854 
5 *295:25 *3170:CLK 20 
*END

*D_NET *296 0.0084983
*CONN
*I *3490:A I *D sg13g2_buf_16
*I *3441:A I *D sg13g2_buf_8
*I *3433:A I *D sg13g2_buf_8
*I *3379:X O *D sg13g2_buf_16
*CAP
1 *3490:A 0
2 *3441:A 0.000451509
3 *3433:A 0.000784318
4 *3379:X 0.000152216
5 *296:36 0.00140574
6 *296:21 0.00208079
7 *296:8 0.00116007
8 *3433:A *493:16 0
9 *3433:A *554:22 0
10 *3433:A *564:14 0
11 *3433:A *623:73 0
12 *3433:A *657:16 0
13 *3433:A *667:8 0.000393653
14 *3441:A *342:35 0.000857836
15 *296:8 *317:10 0.000241983
16 *296:8 *351:20 0
17 *296:8 *554:22 0.000112341
18 *296:21 *657:16 0
19 *296:36 *301:34 0
20 *296:36 *345:18 0
21 *296:36 *347:10 0
22 *296:36 *487:16 0
23 *296:36 *700:8 0
24 *31:20 *3441:A 0.000857836
25 *52:12 *296:21 0
26 *73:8 *3433:A 0
27 *274:12 *296:36 0
*RES
1 *3379:X *296:8 41.6171 
2 *296:8 *3433:A 46.8186 
3 *296:8 *296:21 1.5862 
4 *296:21 *3441:A 45.7268 
5 *296:21 *296:36 30.6884 
6 *296:36 *3490:A 20 
*END

*D_NET *297 0.040988
*CONN
*I *3152:A I *D sg13g2_xnor2_1
*I *3153:A I *D sg13g2_xnor2_1
*I *3452:A I *D sg13g2_inv_2
*I *3147:A I *D sg13g2_xnor2_1
*I *3150:A I *D sg13g2_xnor2_1
*I *3168:A I *D sg13g2_xnor2_1
*I *2964:A I *D sg13g2_xnor2_1
*I *3151:A I *D sg13g2_xnor2_1
*I *3380:X O *D sg13g2_buf_16
*CAP
1 *3152:A 0.00101093
2 *3153:A 0.000896485
3 *3452:A 0.000414929
4 *3147:A 2.95944e-05
5 *3150:A 0
6 *3168:A 0
7 *2964:A 0
8 *3151:A 0
9 *3380:X 0
10 *297:52 8.74744e-05
11 *297:46 0.00106821
12 *297:36 0.00146796
13 *297:26 0.00128181
14 *297:24 0.00186184
15 *297:18 0.00135925
16 *297:14 0.00174202
17 *297:10 0.00484929
18 *297:8 0.0039666
19 *297:6 0.00107847
20 *297:4 0.00101093
21 *3147:A *3147:B 4.77083e-05
22 *3152:A *3017:B1 0.0001122
23 *3152:A *3065:S 0.000112426
24 *3152:A *3152:B 0.000754707
25 *3152:A *3628:ext_trim[3] 0.000337402
26 *3152:A *419:24 0.000289661
27 *3152:A *701:81 0.000144768
28 *3152:A *706:67 0.000175693
29 *3153:A *3065:A1 0
30 *3153:A *3066:A1 0.000208035
31 *3153:A *421:14 0.000240377
32 *3153:A *435:22 0.000686423
33 *3153:A *630:47 0
34 *3452:A *3079:A0 0.000627195
35 *3452:A *3152:B 0
36 *3452:A *486:16 0.000401895
37 *297:8 *351:71 0
38 *297:8 *435:22 0.000426821
39 *297:10 *351:71 0
40 *297:10 *435:22 7.48842e-05
41 *297:10 *483:10 0.000923754
42 *297:10 *510:10 0.000176399
43 *297:10 *562:63 0
44 *297:10 *623:18 0
45 *297:10 *623:36 0
46 *297:10 *639:22 0.00288475
47 *297:10 *674:14 0
48 *297:14 *573:34 0
49 *297:14 *624:50 0
50 *297:14 *692:16 0
51 *297:14 *692:33 0
52 *297:18 *508:10 0.000630982
53 *297:18 *508:20 7.30101e-05
54 *297:24 *3313:CLK 0
55 *297:24 *347:44 0
56 *297:24 *348:20 0
57 *297:24 *348:28 0
58 *297:24 *508:20 0.000728022
59 *297:24 *533:40 0.000759265
60 *297:26 *3168:B 1.54556e-05
61 *297:26 *347:44 0
62 *297:26 *348:36 0.000517207
63 *297:26 *508:20 1.54008e-05
64 *297:26 *623:89 0
65 *297:36 *3168:B 0.000370907
66 *297:36 *3364:RESET_B 7.92265e-05
67 *297:36 *345:87 0
68 *297:36 *348:36 0.000338565
69 *297:36 *348:44 0.000496753
70 *297:36 *350:20 0.000240684
71 *297:46 *3151:B 0
72 *297:46 *3166:B 0.000273882
73 *297:46 *3169:B 6.49135e-05
74 *297:46 *298:50 0
75 *297:46 *350:20 1.54008e-05
76 *297:46 *561:16 0.000434174
77 *297:46 *561:24 0.000403709
78 *297:46 *579:12 0.000282463
79 *297:46 *606:48 0
80 *297:46 *610:48 8.00425e-05
81 *297:46 *610:50 0
82 *297:46 *610:58 0
83 *2939:S *297:18 0
84 *2939:S *297:24 0
85 *2947:A *297:46 1.54556e-05
86 *3354:D *297:26 0
87 *16:9 *297:24 7.33225e-05
88 *51:54 *297:14 0
89 *65:34 *297:46 7.98582e-05
90 *74:12 *297:36 0
91 *74:20 *297:26 0.000629315
92 *76:10 *3153:A 0.000819392
93 *92:10 *297:46 0
94 *92:18 *297:24 0
95 *94:10 *297:24 8.00842e-05
96 *247:50 *297:10 0.000811055
97 *247:52 *297:14 0
98 *262:47 *3152:A 0.000176367
99 *273:10 *297:10 0.00117961
100 *276:12 *297:36 0.000552577
101 *291:99 *297:10 0
102 *292:10 *3147:A 0
103 *292:10 *297:26 0
*RES
1 *3380:X *297:4 20 
2 *297:4 *297:6 20 
3 *297:6 *297:8 2.0806 
4 *297:8 *297:10 34.2166 
5 *297:10 *297:14 33.5136 
6 *297:14 *297:18 23.3166 
7 *297:18 *297:24 31.1755 
8 *297:24 *297:26 7.8898 
9 *297:26 *297:36 46.6744 
10 *297:36 *297:46 49.8262 
11 *297:46 *297:52 40.5974 
12 *297:52 *3151:A 20 
13 *297:36 *2964:A 20 
14 *297:26 *3168:A 20 
15 *297:24 *3150:A 20 
16 *297:18 *3147:A 40.3193 
17 *297:8 *3452:A 44.5629 
18 *297:6 *3153:A 49.6099 
19 *297:4 *3152:A 30.6399 
*END

*D_NET *298 0.103757
*CONN
*I *3621:A I *D sg13g2_buf_16
*I *3149:A I *D sg13g2_xnor2_1
*I *3148:A I *D sg13g2_xnor2_1
*I *3169:A I *D sg13g2_xnor2_1
*I *3167:A I *D sg13g2_xnor2_1
*I *3166:A I *D sg13g2_xnor2_1
*I *3381:X O *D sg13g2_buf_16
*CAP
1 *3621:A 0.000366148
2 *3149:A 0
3 *3148:A 0
4 *3169:A 0
5 *3167:A 0
6 *3166:A 0.00176963
7 *3381:X 0.000285409
8 *298:116 0.0121533
9 *298:114 0.0117872
10 *298:112 0.00119039
11 *298:108 0.0014758
12 *298:77 0.00164273
13 *298:62 0.00390572
14 *298:50 0.000901081
15 *298:40 0.000997962
16 *298:32 0.00083049
17 *298:28 0.00234862
18 *298:22 0.00377401
19 *298:18 0.00177674
20 *298:12 0.00364151
21 *298:10 0.0035304
22 *298:6 0
23 *3166:A *3129:S 4.77702e-05
24 *3166:A *3166:B 0.000661519
25 *3166:A *3334:D 0.000941283
26 *3166:A *3576:A 0.000629331
27 *3166:A *300:52 0.000597664
28 *3166:A *364:22 0
29 *3166:A *558:24 0.000176365
30 *3166:A *561:44 0.000234634
31 *3621:A *461:10 0.0001447
32 *298:12 *641:104 0
33 *298:18 *414:73 0
34 *298:18 *417:57 0
35 *298:22 *432:16 0.00212422
36 *298:22 *436:28 0.000539835
37 *298:22 *509:14 0
38 *298:22 *522:34 0
39 *298:22 *522:48 0
40 *298:22 *583:44 0
41 *298:22 *583:60 0
42 *298:22 *625:132 0
43 *298:22 *691:8 0
44 *298:28 *2937:A1 0
45 *298:28 *3148:B 1.54285e-05
46 *298:28 *3312:RESET_B 4.77425e-05
47 *298:28 *352:36 0.000518253
48 *298:28 *508:30 0
49 *298:28 *523:14 0.00043523
50 *298:28 *544:46 0.000403131
51 *298:28 *554:12 0
52 *298:28 *690:20 0
53 *298:32 *3148:B 0.000176422
54 *298:32 *508:30 0
55 *298:40 *3151:B 0.000888026
56 *298:50 *3151:B 0.000144054
57 *298:50 *561:8 0.000124862
58 *298:50 *561:16 0.000434146
59 *298:50 *610:58 0
60 *298:50 *618:98 0.000273003
61 *298:62 *3166:B 0.000208968
62 *298:62 *3169:B 8.02269e-05
63 *298:62 *3320:D 0
64 *298:62 *3334:D 0.000161986
65 *298:62 *300:52 4.77702e-05
66 *298:62 *618:98 0.00031432
67 *298:77 *3085:A1 0
68 *298:77 *428:32 0
69 *298:77 *429:39 0
70 *298:77 *543:12 0
71 *298:77 *583:87 0
72 *298:77 *587:116 0
73 *298:77 *588:65 0.000331205
74 *298:77 *618:90 0.00133616
75 *298:108 *367:16 0
76 *298:108 *414:18 0.00104104
77 *298:112 *3197:RESET_B 4.77425e-05
78 *298:112 *314:8 0
79 *298:112 *385:22 0.000304948
80 *298:112 *426:8 4.75166e-05
81 *298:116 *3099:A1 0.001568
82 *298:116 *3266:CLK 0.000182109
83 *298:116 *3627:trim[13] 0.000638874
84 *298:116 *341:38 0.00514162
85 *298:116 *341:47 0.00332678
86 *298:116 *446:27 0
87 *298:116 *458:21 0.000319766
88 *298:116 *461:10 0.00237359
89 *298:116 *604:14 0
90 *298:116 *604:34 0
91 *298:116 *604:45 0
92 *298:116 *605:38 0
93 *298:116 *605:50 0
94 *298:116 *605:52 0
95 *298:116 *645:55 0.00247941
96 *298:116 *646:41 0
97 *298:116 *646:138 0
98 uio_oe[3] *298:62 0
99 *2938:S *298:28 0.000505416
100 *3294:D *3166:A 0.000112641
101 *3381:A *298:112 0
102 *31:12 *298:12 0.00980821
103 *51:12 *298:77 0
104 *74:12 *298:32 0.000306081
105 *74:12 *298:40 0.000758314
106 *92:10 *298:40 8.00842e-05
107 *93:12 *298:22 0.000125977
108 *93:18 *298:22 0
109 *173:8 *298:77 0
110 *242:18 *298:40 0
111 *243:61 *298:28 0.000985582
112 *244:10 *298:28 0.000403466
113 *249:12 *298:40 0
114 *277:20 *298:28 0.0014386
115 *290:19 *298:112 0
116 *293:22 *298:12 0.0073456
117 *297:46 *298:50 0
*RES
1 *3381:X *298:6 40 
2 *298:6 *298:10 40 
3 *298:10 *298:12 66.5998 
4 *298:12 *298:18 40.7519 
5 *298:18 *298:22 36.9126 
6 *298:22 *298:28 22.6188 
7 *298:28 *298:32 2.6162 
8 *298:32 *298:40 46.7877 
9 *298:40 *298:50 44.4805 
10 *298:50 *298:62 45.2942 
11 *298:62 *3166:A 38.2928 
12 *298:62 *298:77 35.1822 
13 *298:77 *3167:A 40 
14 *298:50 *3169:A 20 
15 *298:32 *3148:A 20 
16 *298:28 *3149:A 20 
17 *3381:X *298:108 44.7998 
18 *298:108 *298:112 31.9995 
19 *298:112 *298:114 20 
20 *298:114 *298:116 159.794 
21 *298:116 *3621:A 43.7801 
*END

*D_NET *299 0.0711244
*CONN
*I *3454:A I *D sg13g2_buf_8
*I *3165:A I *D sg13g2_xnor2_1
*I *3162:A I *D sg13g2_xnor2_1
*I *2989:A2 I *D sg13g2_mux4_1
*I *3163:A I *D sg13g2_xnor2_1
*I *3164:A I *D sg13g2_xnor2_1
*I *3160:A I *D sg13g2_xnor2_1
*I *3159:A I *D sg13g2_xnor2_1
*I *3382:X O *D sg13g2_buf_16
*CAP
1 *3454:A 0.000510198
2 *3165:A 3.38934e-05
3 *3162:A 0
4 *2989:A2 0.000549715
5 *3163:A 0
6 *3164:A 0
7 *3160:A 0
8 *3159:A 0
9 *3382:X 0.000327617
10 *299:77 0.00104438
11 *299:71 0.00116914
12 *299:60 0.00177218
13 *299:54 0.0030896
14 *299:39 0.00219961
15 *299:30 0.000436447
16 *299:28 0.000962051
17 *299:22 0.00187144
18 *299:14 0.00511482
19 *299:12 0.00401059
20 *299:10 0.00454381
21 *299:8 0.00538162
22 *2989:A2 *2989:A1 0.000241052
23 *2989:A2 *3123:S 0
24 *2989:A2 *327:22 0.000394237
25 *2989:A2 *329:50 0
26 *2989:A2 *512:10 0
27 *3454:A *3628:f_clk1_divider[0] 0
28 *3454:A *3628:f_osc_multiply_factor[3] 0
29 *3454:A *404:25 0
30 *3454:A *414:18 0
31 *3454:A *638:47 0
32 *3454:A *638:58 0
33 *299:8 *3187:CLK 0
34 *299:8 *3628:f_osc_multiply_factor[4] 0
35 *299:8 *320:8 7.92265e-05
36 *299:10 *3366:RESET_B 0.000817816
37 *299:10 *311:8 0.000975668
38 *299:10 *320:27 0
39 *299:10 *320:33 0
40 *299:10 *323:31 0
41 *299:10 *323:37 0
42 *299:10 *414:18 0
43 *299:10 *414:24 0
44 *299:10 *420:44 0
45 *299:10 *433:8 0.000182519
46 *299:10 *433:16 0.00012767
47 *299:10 *436:10 0
48 *299:10 *487:29 0
49 *299:10 *625:24 0.00592109
50 *299:10 *631:26 0.00118854
51 *299:10 *631:33 0.000393913
52 *299:10 *638:14 0
53 *299:10 *638:22 0
54 *299:10 *638:36 0
55 *299:10 *638:47 0
56 *299:10 *666:16 0.000603358
57 *299:10 *702:24 0
58 *299:14 *328:20 0.00749184
59 *299:14 *416:24 0.00520711
60 *299:14 *422:38 0
61 *299:14 *443:40 0
62 *299:22 *328:20 0
63 *299:22 *443:40 0.00141577
64 *299:22 *641:34 0
65 *299:28 *439:22 0.000824051
66 *299:28 *568:16 8.00394e-05
67 *299:28 *590:36 0.000240377
68 *299:28 *610:82 0
69 *299:28 *610:90 0
70 *299:30 *578:10 0
71 *299:30 *610:90 0.000180567
72 *299:39 *354:33 0.00119545
73 *299:39 *641:73 0.000608486
74 *299:54 *3080:A0 0
75 *299:54 *354:33 7.52149e-05
76 *299:54 *436:36 0
77 *299:54 *436:38 0
78 *299:54 *584:57 0
79 *299:54 *584:59 0.00194937
80 *299:54 *589:72 0
81 *299:54 *621:8 0.000181695
82 *299:54 *621:14 0.000554492
83 *299:54 *621:58 0.000289002
84 *299:54 *641:73 0.000265575
85 *299:54 *641:85 0.000823472
86 *299:60 *2979:A1 0
87 *299:60 *3125:S 0
88 *299:60 *326:22 0
89 *299:60 *326:26 0
90 *299:60 *326:32 0
91 *299:60 *583:146 0.00183613
92 *299:71 *326:22 0
93 *299:71 *405:16 0
94 *299:71 *511:10 0
95 *299:71 *513:10 0
96 *299:71 *583:146 0.000426659
97 *299:71 *620:57 0.000235055
98 *299:71 *633:12 0
99 *299:77 *3162:B 1.54008e-05
100 *299:77 *3348:RESET_B 0
101 *299:77 *327:22 0.001013
102 *299:77 *327:28 0.00012816
103 *299:77 *512:10 0
104 uo_out[4] *299:30 0.000494191
105 uo_out[4] *299:39 0.000586536
106 *2996:A2 *299:28 0
107 *36:12 *299:28 0
108 *56:12 *299:77 0.000241955
109 *76:12 *299:10 0
110 *87:8 *299:71 0.000822642
*RES
1 *3382:X *299:8 42.6986 
2 *299:8 *299:10 56.7118 
3 *299:10 *299:12 20 
4 *299:12 *299:14 50.2228 
5 *299:14 *299:22 32.3909 
6 *299:22 *299:28 47.8898 
7 *299:28 *299:30 2.3278 
8 *299:30 *3159:A 40 
9 *299:30 *299:39 5.7886 
10 *299:39 *3160:A 40 
11 *299:39 *299:54 43.5149 
12 *299:54 *299:60 32.1031 
13 *299:60 *3164:A 40 
14 *299:60 *299:71 29.2494 
15 *299:71 *299:77 27.1276 
16 *299:77 *3163:A 40 
17 *299:77 *2989:A2 45.6135 
18 *299:71 *3162:A 20 
19 *299:54 *3165:A 20.3193 
20 *299:8 *3454:A 45.5517 
*END

*D_NET *300 0.060954
*CONN
*I *3455:A I *D sg13g2_inv_4
*I *3157:A I *D sg13g2_xnor2_1
*I *3156:A I *D sg13g2_xnor2_1
*I *3161:A I *D sg13g2_xnor2_1
*I *3158:A I *D sg13g2_xnor2_1
*I *3154:A I *D sg13g2_xnor2_1
*I *3155:A I *D sg13g2_xnor2_1
*I *3383:X O *D sg13g2_buf_16
*CAP
1 *3455:A 7.31934e-05
2 *3157:A 2.60565e-05
3 *3156:A 0
4 *3161:A 0
5 *3158:A 0.000395006
6 *3154:A 5.88237e-05
7 *3155:A 0
8 *3383:X 0.000212806
9 *300:119 0.00181663
10 *300:100 0.00221163
11 *300:98 0.00116502
12 *300:85 0.00198425
13 *300:77 0.00128316
14 *300:69 0.00129468
15 *300:52 0.00250544
16 *300:38 0.00198331
17 *300:32 0.000275849
18 *300:30 0.00322473
19 *300:28 0.00322473
20 *300:26 0.00303078
21 *300:24 0.00303078
22 *300:22 0.0027488
23 *300:16 0.00283043
24 *300:10 0.000367632
25 *3154:A *608:28 0.000126952
26 *3157:A *349:22 4.77425e-05
27 *3157:A *609:95 4.77425e-05
28 *3158:A *3142:A0 0.000143351
29 *3158:A *3336:CLK 0.000234811
30 *3158:A *343:52 0.00012874
31 *3158:A *355:14 1.54556e-05
32 *3158:A *511:30 0.000760815
33 *3158:A *571:18 0.000241195
34 *300:22 *432:37 0
35 *300:22 *433:22 0
36 *300:22 *600:57 7.78179e-05
37 *300:22 *600:102 0.000236209
38 *300:22 *701:93 0
39 *300:26 *328:18 0
40 *300:26 *356:43 0.000823763
41 *300:26 *600:77 0
42 *300:26 *698:20 0.00152883
43 *300:26 *698:37 0.00478521
44 *300:30 *573:22 0
45 *300:38 *349:14 1.54008e-05
46 *300:38 *349:22 0
47 *300:38 *579:12 0.000233251
48 *300:38 *579:20 0
49 *300:52 *3320:RESET_B 0
50 *300:52 *3320:D 0.000209009
51 *300:52 *345:62 0
52 *300:52 *349:14 0.000404009
53 *300:52 *496:6 0
54 *300:52 *496:17 0
55 *300:52 *579:20 0
56 *300:52 *580:28 0.00118303
57 *300:52 *609:20 0
58 *300:52 *616:72 0
59 *300:52 *618:82 0
60 *300:69 *344:41 0.000125053
61 *300:69 *580:28 0.000104122
62 *300:69 *616:12 0
63 *300:69 *616:20 0
64 *300:69 *616:58 0
65 *300:69 *618:82 0
66 *300:77 *344:69 4.75166e-05
67 *300:77 *582:127 0
68 *300:77 *618:55 0
69 *300:85 *3321:CLK 0.000401937
70 *300:85 *608:28 0.000103228
71 *300:85 *615:14 0.000465679
72 *300:85 *616:20 0.000371695
73 *300:119 *3133:A0 0.000128576
74 *300:119 *3323:CLK 0.00156258
75 *300:119 *343:52 0.000319223
76 *300:119 *354:12 5.31192e-05
77 *300:119 *354:18 0.00108656
78 *300:119 *370:12 0.000927462
79 *300:119 *370:18 0.000979578
80 *300:119 *511:16 0
81 *300:119 *511:30 0.000501044
82 *300:119 *513:10 0
83 uio_oe[6] *300:38 0.000337924
84 uio_out[0] *3154:A 0
85 uio_out[3] *300:77 0
86 uio_out[5] *300:69 0.000124824
87 *3166:A *300:52 0.000597664
88 *16:9 *300:30 0
89 *30:16 *3158:A 0
90 *34:12 *300:119 0
91 *40:14 *300:98 0.00139579
92 *54:16 *300:26 0
93 *59:14 *3158:A 0.00113107
94 *59:14 *300:119 0.00108532
95 *64:16 *300:69 0
96 *71:14 *300:30 0
97 *74:12 *300:38 0
98 *74:12 *300:52 0
99 *89:18 *300:30 0
100 *104:16 *300:22 0
101 *220:8 *300:119 0
102 *236:32 *300:22 0.0003057
103 *238:14 *300:30 0.00204444
104 *247:44 *300:26 0
105 *256:91 *300:22 0
106 *281:20 *300:119 0
107 *291:58 *300:10 0
108 *294:63 *300:69 0.000981244
109 *294:63 *300:77 0.000658679
110 *294:63 *300:85 7.91215e-05
111 *298:62 *300:52 4.77702e-05
*RES
1 *3383:X *300:10 41.9055 
2 *300:10 *300:16 40.7519 
3 *300:16 *300:22 47.8306 
4 *300:22 *300:24 20 
5 *300:24 *300:26 38.9134 
6 *300:26 *300:28 20 
7 *300:28 *300:30 34.0621 
8 *300:30 *300:32 20 
9 *300:32 *300:38 22.7369 
10 *300:38 *300:52 38.231 
11 *300:52 *3155:A 40 
12 *300:52 *300:69 47.7868 
13 *300:69 *300:77 45.0264 
14 *300:77 *300:85 47.622 
15 *300:85 *3154:A 40.5974 
16 *300:85 *300:98 33.2973 
17 *300:98 *300:100 20 
18 *300:100 *3158:A 46.9113 
19 *300:100 *300:119 45.2453 
20 *300:119 *3161:A 20 
21 *300:38 *3156:A 20 
22 *300:32 *3157:A 40.3193 
23 *300:10 *3455:A 40.7519 
*END

*D_NET *301 0.0121013
*CONN
*I *3400:A I *D sg13g2_buf_16
*I *3411:A I *D sg13g2_buf_16
*I *3384:X O *D sg13g2_buf_8
*CAP
1 *3400:A 0
2 *3411:A 0
3 *3384:X 0.000489867
4 *301:34 0.000932568
5 *301:28 0.00142243
6 *301:12 0.0007055
7 *301:6 0.0007055
8 *301:12 *351:71 0.00249946
9 *301:28 *3002:C 0
10 *301:28 *522:34 0.000176399
11 *301:28 *701:28 0.000124547
12 *301:28 *702:24 0.000240377
13 *301:34 *3485:A 0
14 *301:34 *347:10 0.00143847
15 *301:34 *700:8 0
16 *93:18 *301:34 0.000208035
17 *108:14 *301:12 0.00249909
18 *260:18 *301:28 0.000659054
19 *296:36 *301:34 0
*RES
1 *3384:X *301:6 40 
2 *301:6 *301:12 33.1222 
3 *301:12 *3411:A 20 
4 *3384:X *301:28 45.2736 
5 *301:28 *301:34 30.4648 
6 *301:34 *3400:A 20 
*END

*D_NET *302 0.0039163
*CONN
*I *3413:A I *D sg13g2_buf_16
*I *3412:A I *D sg13g2_buf_16
*I *3385:X O *D sg13g2_buf_8
*CAP
1 *3413:A 5.83656e-05
2 *3412:A 0.000335619
3 *3385:X 0.000809866
4 *302:10 0.000817136
5 *302:8 0.00123302
6 *3412:A *316:8 0
7 *3412:A *337:12 0.000556237
8 *302:8 *3414:A 0
9 *302:8 *333:6 0
10 *302:10 *334:28 0
11 *302:10 *337:12 0.000106064
12 *3399:A *3412:A 0
13 *282:36 *3412:A 0
14 *282:36 *302:10 0
15 *283:34 *302:10 0
*RES
1 *3385:X *302:8 48.9713 
2 *302:8 *302:10 5.047 
3 *302:10 *3412:A 44.4084 
4 *302:10 *3413:A 40.5356 
*END

*D_NET *303 0.00448277
*CONN
*I *3415:A I *D sg13g2_buf_16
*I *3414:A I *D sg13g2_buf_16
*I *3386:X O *D sg13g2_buf_8
*CAP
1 *3415:A 0.00163535
2 *3414:A 0.000205995
3 *3386:X 0.000230191
4 *303:10 0.00184135
5 *303:8 0.000230191
6 *3415:A *3416:A 0
7 *3415:A *3420:A 0.000339698
8 *3415:A *304:6 0
9 *3415:A *306:12 0
10 *3415:A *333:61 0
11 *291:233 *3415:A 0
12 *291:233 *303:8 0
13 *291:237 *3415:A 0
14 *291:251 *303:8 0
15 *302:8 *3414:A 0
*RES
1 *3386:X *303:8 42.575 
2 *303:8 *303:10 20 
3 *303:10 *3414:A 22.266 
4 *303:10 *3415:A 37.407 
*END

*D_NET *304 0.00106113
*CONN
*I *3416:A I *D sg13g2_buf_16
*I *3417:A I *D sg13g2_buf_16
*I *3387:X O *D sg13g2_buf_8
*CAP
1 *3416:A 0.000288443
2 *3417:A 0
3 *3387:X 0.000242124
4 *304:6 0.000530566
5 *3416:A *306:12 0
6 *304:6 *3424:A 0
7 *3415:A *3416:A 0
8 *3415:A *304:6 0
9 *291:210 *3416:A 0
10 *291:210 *304:6 0
11 *291:214 *3416:A 0
12 *291:218 *3416:A 0
*RES
1 *3387:X *304:6 22.266 
2 *304:6 *3417:A 20 
3 *304:6 *3416:A 23.1106 
*END

*D_NET *305 0.00426195
*CONN
*I *3418:A I *D sg13g2_buf_16
*I *3419:A I *D sg13g2_buf_16
*I *3388:X O *D sg13g2_buf_8
*CAP
1 *3418:A 0.000362876
2 *3419:A 0.000519119
3 *3388:X 0.000958487
4 *305:10 0.00117249
5 *305:8 0.00124898
6 *3418:A *335:12 0
7 *305:8 *3447:A 0
8 *305:8 *332:20 0
9 *305:8 *333:61 0
10 *305:8 *341:6 0
11 *291:188 *305:8 0
*RES
1 *3388:X *305:8 49.4039 
2 *305:8 *305:10 3.5638 
3 *305:10 *3419:A 45.7268 
4 *305:10 *3418:A 44.0582 
*END

*D_NET *306 0.00170063
*CONN
*I *3421:A I *D sg13g2_buf_16
*I *3420:A I *D sg13g2_buf_16
*I *3389:X O *D sg13g2_buf_8
*CAP
1 *3421:A 0
2 *3420:A 0.000235478
3 *3389:X 0.000228479
4 *306:12 0.000451986
5 *306:8 0.000444987
6 *306:8 *337:88 0
7 *3415:A *3420:A 0.000339698
8 *3415:A *306:12 0
9 *3416:A *306:12 0
10 *291:218 *306:12 0
11 *291:220 *3420:A 0
12 *291:220 *306:12 0
13 *291:233 *3420:A 0
*RES
1 *3389:X *306:8 42.575 
2 *306:8 *306:12 22.266 
3 *306:12 *3420:A 22.8634 
4 *306:12 *3421:A 20 
*END

*D_NET *307 0.00510445
*CONN
*I *3424:A I *D sg13g2_buf_16
*I *3423:A I *D sg13g2_buf_16
*I *3390:X O *D sg13g2_buf_8
*CAP
1 *3424:A 0.000602904
2 *3423:A 0
3 *3390:X 0.000685386
4 *307:10 0.00126393
5 *307:6 0.00255222
6 *3424:A *475:25 0
7 *307:6 *475:25 0
8 *307:10 *337:88 0
9 *307:10 *338:19 0
10 *307:10 *338:34 0
11 *307:10 *340:10 0
12 *307:10 *466:18 0
13 *291:210 *307:6 0
14 *291:214 *307:6 0
15 *291:218 *307:6 0
16 *291:220 *307:6 0
17 *304:6 *3424:A 0
*RES
1 *3390:X *307:6 26.1594 
2 *307:6 *307:10 34.1934 
3 *307:10 *3423:A 40 
4 *307:6 *3424:A 26.7568 
*END

*D_NET *308 0.0187987
*CONN
*I *3422:A I *D sg13g2_buf_16
*I *3425:A I *D sg13g2_buf_16
*I *3391:X O *D sg13g2_buf_8
*CAP
1 *3422:A 0
2 *3425:A 0
3 *3391:X 8.3453e-05
4 *308:33 0.00163605
5 *308:27 0.00343865
6 *308:16 0.000687721
7 *308:10 0.00249032
8 *308:8 8.3453e-05
9 *308:8 *700:14 0
10 *308:16 *346:10 0.00122416
11 *308:16 *385:56 0.000733134
12 *308:16 *417:57 0
13 *308:27 *346:10 0.00125304
14 *308:27 *385:56 0.00126746
15 *308:27 *416:16 0.000920157
16 *308:27 *417:10 7.35219e-05
17 *308:27 *639:22 0.00202416
18 *308:27 *666:39 0.00065335
19 *308:27 *666:43 0.00155875
20 *308:27 *692:53 0
21 *308:27 *706:26 7.30101e-05
22 *308:33 *3179:CLK 0
23 *308:33 *322:18 0
24 *308:33 *417:79 0
25 *308:33 *486:8 0.000207922
26 *235:34 *308:27 0.000390421
27 *259:8 *308:27 0
*RES
1 *3391:X *308:8 40.5974 
2 *308:8 *308:10 20 
3 *308:10 *308:16 48.1061 
4 *308:16 *3425:A 20 
5 *308:10 *308:27 45.4513 
6 *308:27 *308:33 33.4312 
7 *308:33 *3422:A 20 
*END

*D_NET *309 0.00199767
*CONN
*I *3427:A I *D sg13g2_buf_16
*I *3426:A I *D sg13g2_buf_16
*I *3392:X O *D sg13g2_buf_8
*CAP
1 *3427:A 0.000258495
2 *3426:A 0
3 *3392:X 0
4 *309:12 0.000481422
5 *309:4 0.000739917
6 *309:12 *3063:A0 0.000177862
7 *309:12 *418:37 0.000339977
8 *151:8 *309:12 0
9 *288:41 *309:12 0
*RES
1 *3392:X *309:4 20 
2 *309:4 *309:12 44.4084 
3 *309:12 *3426:A 20 
4 *309:4 *3427:A 22.266 
*END

*D_NET *310 0.0118827
*CONN
*I *3428:A I *D sg13g2_buf_16
*I *3429:A I *D sg13g2_buf_16
*I *3393:X O *D sg13g2_buf_8
*CAP
1 *3428:A 0
2 *3429:A 0.000430028
3 *3393:X 0.000544551
4 *310:28 0.00155317
5 *310:22 0.00166769
6 *3429:A *312:8 0.000175648
7 *310:22 *311:25 0.000176367
8 *310:22 *708:49 0
9 *310:28 *591:16 4.77425e-05
10 *310:28 *591:23 9.6835e-05
11 *310:28 *591:89 6.38242e-05
12 *310:28 *627:28 0.00262214
13 *310:28 *627:63 0.00108896
14 *310:28 *701:69 0.000175693
15 *310:28 *704:58 0.0026889
16 *6:48 *310:28 0
17 *103:10 *310:28 0
18 *150:14 *310:28 0
19 *288:17 *310:28 0
20 *291:73 *310:28 0
21 *295:10 *310:28 0.000551176
*RES
1 *3393:X *3429:A 43.914 
2 *3393:X *310:22 41.1845 
3 *310:22 *310:28 44.0299 
4 *310:28 *3428:A 20 
*END

*D_NET *311 0.0124595
*CONN
*I *3431:A I *D sg13g2_buf_16
*I *3430:A I *D sg13g2_buf_16
*I *3394:X O *D sg13g2_buf_8
*CAP
1 *3431:A 5.62949e-05
2 *3430:A 0
3 *3394:X 0.000308974
4 *311:25 0.00116445
5 *311:14 0.00218441
6 *311:8 0.00138523
7 *311:8 *702:24 0.000445948
8 *311:14 *3011:A 0
9 *311:14 *3146:A1 0
10 *311:14 *312:8 0
11 *311:14 *348:84 0
12 *311:14 *509:14 0.000530036
13 *311:25 *3146:A1 0
14 *311:25 *312:10 0.000288502
15 *311:25 *322:39 0
16 *311:25 *706:10 0
17 *311:25 *706:47 0.000287563
18 *311:25 *708:49 0
19 *76:12 *311:8 0
20 *234:8 *311:25 0.000239996
21 *236:44 *311:25 0.00151134
22 *266:18 *311:25 0.00290469
23 *299:10 *311:8 0.000975668
24 *310:22 *311:25 0.000176367
*RES
1 *3394:X *311:8 44.5526 
2 *311:8 *311:14 29.353 
3 *311:14 *3430:A 20 
4 *311:14 *311:25 37.0156 
5 *311:25 *3431:A 40.5356 
*END

*D_NET *312 0.0107199
*CONN
*I *3401:A I *D sg13g2_buf_16
*I *3402:A I *D sg13g2_buf_16
*I *3395:X O *D sg13g2_buf_8
*CAP
1 *3401:A 0.000406216
2 *3402:A 0.000284001
3 *3395:X 0.000838637
4 *312:10 0.00104513
5 *312:8 0.00119355
6 *3401:A *318:8 0.000716578
7 *3401:A *322:39 7.51285e-05
8 *3401:A *703:10 0.00098091
9 *3401:A *704:16 0.000106064
10 *3401:A *706:59 0
11 *3402:A *322:33 4.77425e-05
12 *312:8 *348:84 0.00017625
13 *312:8 *704:26 0
14 *312:8 *708:49 0.000594939
15 *312:10 *318:31 0
16 *312:10 *322:39 0.00134732
17 *312:10 *704:16 0.00060763
18 *3429:A *312:8 0.000175648
19 *75:8 *3401:A 0.00183565
20 *266:18 *312:10 0
21 *291:89 *312:8 0
22 *311:14 *312:8 0
23 *311:25 *312:10 0.000288502
*RES
1 *3395:X *312:8 47.6735 
2 *312:8 *312:10 6.283 
3 *312:10 *3402:A 42.4823 
4 *312:10 *3401:A 49.4245 
*END

*D_NET *313 0.00301061
*CONN
*I *3404:A I *D sg13g2_buf_16
*I *3403:A I *D sg13g2_buf_16
*I *3396:X O *D sg13g2_buf_8
*CAP
1 *3404:A 0.000222018
2 *3403:A 0.000517484
3 *3396:X 0.000294539
4 *313:8 0.00103404
5 *3403:A *322:8 0
6 *3403:A *323:6 0.000532893
7 *3403:A *426:28 0.000394237
8 *3403:A *647:33 0
9 *3404:A *3024:A0 0
10 *313:8 *641:118 0
11 *313:8 *647:33 0
12 *112:14 *3404:A 1.54008e-05
*RES
1 *3396:X *313:8 43.0694 
2 *313:8 *3403:A 46.1388 
3 *313:8 *3404:A 41.8334 
*END

*D_NET *314 0.00279935
*CONN
*I *3406:A I *D sg13g2_buf_16
*I *3405:A I *D sg13g2_buf_16
*I *3397:X O *D sg13g2_buf_8
*CAP
1 *3406:A 0
2 *3405:A 0.000420512
3 *3397:X 0.000675106
4 *314:10 0.000724569
5 *314:8 0.000979163
6 *3405:A *323:6 0
7 *291:56 *3405:A 0
8 *298:112 *314:8 0
*RES
1 *3397:X *314:8 47.2409 
2 *314:8 *314:10 3.811 
3 *314:10 *3405:A 44.4084 
4 *314:10 *3406:A 40 
*END

*D_NET *315 0.00340212
*CONN
*I *3408:A I *D sg13g2_buf_16
*I *3407:A I *D sg13g2_buf_16
*I *3398:X O *D sg13g2_buf_8
*CAP
1 *3408:A 0.000235618
2 *3407:A 0.000524543
3 *3398:X 0.000940901
4 *315:10 0.00170106
5 *3407:A *331:10 0
6 *3407:A *333:10 0
7 *3408:A *331:6 0
8 *315:10 *331:6 0
9 *315:10 *331:10 0
10 *315:10 *333:6 0
11 *315:10 *333:10 0
12 *315:10 *334:20 0
*RES
1 *3398:X *315:10 49.1361 
2 *315:10 *3407:A 46.4169 
3 *315:10 *3408:A 42.4823 
*END

*D_NET *316 0.00201367
*CONN
*I *3410:A I *D sg13g2_buf_16
*I *3409:A I *D sg13g2_buf_16
*I *3399:X O *D sg13g2_buf_8
*CAP
1 *3410:A 0.00018418
2 *3409:A 0.000289333
3 *3399:X 0.000533324
4 *316:8 0.00100684
5 *3409:A *337:12 0
6 *3410:A *329:8 0
7 *316:8 *337:12 0
8 *3412:A *316:8 0
9 *282:36 *3409:A 0
10 *282:36 *316:8 0
*RES
1 *3399:X *316:8 46.5302 
2 *316:8 *3409:A 43.3269 
3 *316:8 *3410:A 41.6171 
*END

*D_NET *317 0.0347783
*CONN
*I *3296:CLK I *D sg13g2_dfrbpq_1
*I *3295:CLK I *D sg13g2_dfrbpq_1
*I *3338:CLK I *D sg13g2_dfrbpq_1
*I *3337:CLK I *D sg13g2_dfrbpq_1
*I *3307:CLK I *D sg13g2_dfrbpq_1
*I *3292:CLK I *D sg13g2_dfrbpq_1
*I *3400:X O *D sg13g2_buf_16
*CAP
1 *3296:CLK 0.000570274
2 *3295:CLK 0
3 *3338:CLK 0.000460115
4 *3337:CLK 0
5 *3307:CLK 0.000593611
6 *3292:CLK 0.000732995
7 *3400:X 0.00136322
8 *317:82 0.000596041
9 *317:62 0.000903084
10 *317:51 0.00193718
11 *317:43 0.00177831
12 *317:22 0.00216727
13 *317:16 0.00492834
14 *317:10 0.00570923
15 *3292:CLK *364:8 0
16 *3292:CLK *606:12 0
17 *3292:CLK *670:24 0.000124547
18 *3296:CLK *3131:A1 0
19 *3296:CLK *368:10 0.00066189
20 *3296:CLK *546:8 0
21 *3296:CLK *581:22 0.000746176
22 *3296:CLK *583:127 0.000762929
23 *3296:CLK *622:39 0
24 *3307:CLK *537:8 0
25 *3307:CLK *611:14 0
26 *3338:CLK *553:10 0.000236057
27 *3338:CLK *576:24 0.0010361
28 *317:10 *3239:CLK 0
29 *317:10 *347:18 0
30 *317:10 *351:20 0
31 *317:10 *523:20 0.000209056
32 *317:10 *554:22 0
33 *317:10 *657:10 0.000824591
34 *317:16 *3074:A0 0
35 *317:16 *3083:A1 0.000823989
36 *317:16 *3250:CLK 0
37 *317:16 *3309:CLK 0
38 *317:16 *342:35 0
39 *317:16 *342:39 0.00240766
40 *317:16 *342:48 0
41 *317:16 *342:50 0
42 *317:16 *346:18 0
43 *317:16 *346:20 0
44 *317:16 *351:20 0
45 *317:16 *423:36 0
46 *317:16 *489:23 0
47 *317:16 *490:6 0
48 *317:16 *490:15 0
49 *317:16 *491:15 0
50 *317:16 *494:15 0
51 *317:16 *586:102 7.98567e-05
52 *317:16 *588:65 4.77425e-05
53 *317:16 *595:73 0
54 *317:16 *595:83 0
55 *317:22 *343:36 0.000124547
56 *317:22 *579:50 0.000340051
57 *317:22 *614:18 0
58 *317:22 *670:24 0.000616283
59 *317:43 *3318:D 0.000240377
60 *317:43 *3332:RESET_B 0.000402343
61 *317:43 *3567:A 0
62 *317:43 *343:50 0.000530266
63 *317:43 *583:113 1.54008e-05
64 *317:43 *583:121 0.000241167
65 *317:51 *343:50 0.000273394
66 *317:51 *611:8 0
67 *317:51 *611:14 0
68 *317:51 *611:23 0
69 *317:51 *612:122 0
70 *317:51 *684:12 0
71 *317:62 *553:10 0.000715749
72 *317:62 *612:122 0
73 *317:82 *368:10 0.000127991
74 *317:82 *581:22 0.000127991
75 uo_out[6] *3292:CLK 2.17531e-05
76 *3174:CLK *317:10 0
77 *31:28 *317:16 0
78 *52:12 *317:10 0.00079272
79 *63:8 *317:16 4.77425e-05
80 *162:12 *317:16 0.000218323
81 *245:43 *317:22 0
82 *289:6 *317:16 0
83 *289:15 *317:16 0
84 *296:8 *317:10 0.000241983
*RES
1 *3400:X *317:10 34.3685 
2 *317:10 *317:16 41.0661 
3 *317:16 *317:22 25.8607 
4 *317:22 *3292:CLK 45.7165 
5 *317:22 *317:43 28.5593 
6 *317:43 *317:51 28.343 
7 *317:51 *3307:CLK 45.7886 
8 *317:51 *317:62 5.7886 
9 *317:62 *3337:CLK 40 
10 *317:62 *3338:CLK 47.0246 
11 *317:43 *317:82 20.5974 
12 *317:82 *3295:CLK 40 
13 *317:82 *3296:CLK 47.7662 
*END

*D_NET *318 0.0194101
*CONN
*I *3183:CLK I *D sg13g2_dfrbpq_1
*I *3368:CLK I *D sg13g2_dfrbpq_1
*I *3369:CLK I *D sg13g2_dfrbpq_1
*I *3365:CLK I *D sg13g2_dfrbpq_1
*I *3182:CLK I *D sg13g2_dfrbpq_1
*I *3226:CLK I *D sg13g2_dfrbpq_1
*I *3401:X O *D sg13g2_buf_16
*CAP
1 *3183:CLK 0.000116858
2 *3368:CLK 0
3 *3369:CLK 2.92607e-05
4 *3365:CLK 0
5 *3182:CLK 0
6 *3226:CLK 0.00125971
7 *3401:X 0.000144995
8 *318:80 0.000438793
9 *318:62 0.000443394
10 *318:48 0.00107412
11 *318:46 0.00129543
12 *318:37 0.000506159
13 *318:31 0.00140104
14 *318:12 0.00238107
15 *318:8 0.000233145
16 *3226:CLK *3226:RESET_B 0
17 *3226:CLK *319:12 0
18 *3226:CLK *627:63 0
19 *318:8 *322:33 0
20 *318:8 *704:16 0.000502791
21 *318:8 *706:59 0.000128663
22 *318:31 *322:33 0.000129281
23 *318:31 *626:30 0.00127069
24 *318:31 *704:16 0
25 *318:31 *704:20 0.000231326
26 *318:31 *704:26 0.000819094
27 *318:37 *626:30 0.000501546
28 *318:37 *626:32 0.000233801
29 *318:37 *626:53 8.00842e-05
30 *318:46 *626:53 0
31 *318:46 *673:10 0.000143908
32 *318:46 *673:16 0.000176252
33 *318:48 *3357:RESET_B 0
34 *318:48 *356:20 0.0001122
35 *318:48 *626:53 0.000207978
36 *318:48 *626:64 0.000208035
37 *318:48 *632:60 0
38 *318:62 *3357:RESET_B 0
39 *318:62 *3369:D 0
40 *318:62 *528:22 0.000712884
41 *318:62 *691:24 6.99845e-05
42 *318:62 *699:18 0.000713495
43 *318:80 *505:8 0
44 *3179:D *3226:CLK 0
45 *3180:D *3226:CLK 0
46 *3401:A *318:8 0.000716578
47 *6:14 *318:80 0
48 *149:14 *318:48 0
49 *149:14 *318:62 0
50 *246:53 *318:62 4.77425e-05
51 *262:16 *318:31 0
52 *266:18 *318:31 0.00236498
53 *266:18 *318:37 0.000714803
54 *288:17 *3226:CLK 0
55 *288:21 *318:31 0
56 *291:73 *318:31 0
57 *312:10 *318:31 0
*RES
1 *3401:X *318:8 43.3166 
2 *318:8 *318:12 20.7519 
3 *318:12 *3226:CLK 30.0908 
4 *318:12 *318:31 36.4594 
5 *318:31 *318:37 24.2848 
6 *318:37 *3182:CLK 20 
7 *318:37 *318:46 2.6162 
8 *318:46 *318:48 5.7268 
9 *318:48 *318:62 46.1388 
10 *318:62 *3365:CLK 20 
11 *318:48 *3369:CLK 20.3502 
12 *318:46 *318:80 43.3166 
13 *318:80 *3368:CLK 20 
14 *318:31 *3183:CLK 40.9682 
*END

*D_NET *319 0.025608
*CONN
*I *3462:A I *D sg13g2_inv_1
*I *3185:CLK I *D sg13g2_dfrbpq_1
*I *3240:CLK I *D sg13g2_dfrbpq_1
*I *3178:CLK I *D sg13g2_dfrbpq_1
*I *3361:CLK I *D sg13g2_dfrbpq_1
*I *3360:CLK I *D sg13g2_dfrbpq_1
*I *3402:X O *D sg13g2_buf_16
*CAP
1 *3462:A 0
2 *3185:CLK 0
3 *3240:CLK 0.000598101
4 *3178:CLK 3.1103e-05
5 *3361:CLK 0.000275193
6 *3360:CLK 0.000269884
7 *3402:X 0.000946494
8 *319:81 0.00273925
9 *319:51 0.00105412
10 *319:47 0.0035643
11 *319:36 0.000510203
12 *319:14 0.00133849
13 *319:12 0.00184998
14 *3240:CLK *3179:CLK 0.000231136
15 *3240:CLK *328:84 0
16 *3360:CLK *544:24 0
17 *3360:CLK *592:39 0.000709916
18 *3360:CLK *632:60 4.76973e-05
19 *3361:CLK *3003:D 0
20 *3361:CLK *508:6 0
21 *319:12 *3012:A 0
22 *319:12 *3181:RESET_B 0.000466281
23 *319:12 *322:33 0
24 *319:12 *627:69 0.000336984
25 *319:14 *592:39 0.000791161
26 *319:14 *627:69 0.000179389
27 *319:14 *627:84 0
28 *319:51 *3179:CLK 0.00061166
29 *319:81 *346:75 0
30 *319:81 *418:29 0
31 *319:81 *591:45 0
32 *319:81 *591:62 0
33 *319:81 *592:20 0
34 *319:81 *592:39 0
35 *319:81 *600:39 0
36 *319:81 *627:16 0
37 *319:81 *631:65 0
38 *319:81 *647:31 0.000965822
39 *319:81 *701:127 0.000489946
40 *3008:B1 *3240:CLK 0
41 *3011:B *319:14 0.000600049
42 *3011:B *319:36 0.00032018
43 *3011:B *319:47 0.000746183
44 *3226:CLK *319:12 0
45 *3311:D *3361:CLK 1.54008e-05
46 *3311:D *319:14 0.00160483
47 *101:14 *319:36 0
48 *101:14 *319:47 0
49 *101:14 *319:81 0.00197043
50 *102:8 *319:47 0.000447303
51 *235:28 *319:81 0.00011101
52 *261:16 *319:12 0.000175693
53 *263:28 *319:81 0
54 *263:30 *319:47 0.000494977
55 *263:30 *319:81 0.00111483
56 *288:17 *319:12 0
*RES
1 *3402:X *319:12 49.3936 
2 *319:12 *319:14 10.7326 
3 *319:14 *3360:CLK 43.6359 
4 *319:14 *3361:CLK 42.4823 
5 *319:12 *319:36 1.5862 
6 *319:36 *3178:CLK 40.3193 
7 *319:36 *319:47 5.7886 
8 *319:47 *319:51 24.2127 
9 *319:51 *3240:CLK 26.0358 
10 *319:51 *3185:CLK 20 
11 *319:47 *319:81 49.1593 
12 *319:81 *3462:A 20 
*END

*D_NET *320 0.0240033
*CONN
*I *3224:CLK I *D sg13g2_dfrbpq_1
*I *3195:CLK I *D sg13g2_dfrbpq_1
*I *3189:CLK I *D sg13g2_dfrbpq_1
*I *3366:CLK I *D sg13g2_dfrbpq_1
*I *3229:CLK I *D sg13g2_dfrbpq_1
*I *3358:CLK I *D sg13g2_dfrbpq_1
*I *3403:X O *D sg13g2_buf_16
*CAP
1 *3224:CLK 0
2 *3195:CLK 0.000207101
3 *3189:CLK 7.70489e-05
4 *3366:CLK 0
5 *3229:CLK 0
6 *3358:CLK 0.000224479
7 *3403:X 0.00063947
8 *320:81 0.000137642
9 *320:68 0.00196512
10 *320:53 0.00287555
11 *320:33 0.00116419
12 *320:27 0.00157906
13 *320:14 0.00137594
14 *320:8 0.00255419
15 *3189:CLK *3189:RESET_B 0
16 *3195:CLK *3224:RESET_B 0
17 *3195:CLK *414:14 0
18 *3358:CLK *638:10 0
19 *3358:CLK *638:22 0
20 *320:8 *3628:f_osc_multiply_factor[4] 0.000466141
21 *320:8 *321:8 0
22 *320:8 *322:8 0
23 *320:8 *500:15 0
24 *320:14 *3628:f_osc_multiply_factor[1] 7.51285e-05
25 *320:14 *404:25 0.000341119
26 *320:14 *499:17 0
27 *320:14 *599:36 0
28 *320:14 *638:10 0.000176442
29 *320:27 *323:10 0.00156753
30 *320:27 *638:14 0.000341534
31 *320:33 *3077:S 0.000112008
32 *320:33 *323:10 0.00229707
33 *320:33 *487:29 0
34 *320:33 *583:20 0.000815081
35 *320:33 *623:12 0.000369553
36 *320:33 *625:12 0
37 *320:33 *699:59 0.0001122
38 *320:53 *404:25 0.000905694
39 *320:53 *415:12 0
40 *320:53 *415:20 2.20966e-05
41 *320:53 *499:17 0
42 *320:53 *500:15 0
43 *320:53 *598:82 0.000561831
44 *320:68 *426:16 0.000450066
45 *320:68 *426:55 0.000877301
46 *320:68 *500:15 0
47 *320:68 *598:82 0
48 *320:68 *598:97 0
49 *320:81 *599:61 0.000769196
50 *320:81 *638:99 0.000768781
51 *3224:D *3195:CLK 1.54008e-05
52 *3224:D *320:68 8.00842e-05
53 *299:8 *320:8 7.92265e-05
54 *299:10 *320:27 0
55 *299:10 *320:33 0
*RES
1 *3403:X *320:8 46.3757 
2 *320:8 *320:14 26.9731 
3 *320:14 *3358:CLK 22.1836 
4 *320:14 *320:27 27.2718 
5 *320:27 *320:33 34.729 
6 *320:33 *3229:CLK 20 
7 *320:27 *3366:CLK 40 
8 *320:8 *320:53 12.463 
9 *320:53 *3189:CLK 40.7519 
10 *320:53 *320:68 35.5633 
11 *320:68 *3195:CLK 20.6366 
12 *320:68 *320:81 43.5638 
13 *320:81 *3224:CLK 20 
*END

*D_NET *321 0.0133307
*CONN
*I *3197:CLK I *D sg13g2_dfrbpq_1
*I *3196:CLK I *D sg13g2_dfrbpq_1
*I *3188:CLK I *D sg13g2_dfrbpq_1
*I *3443:A I *D sg13g2_inv_1
*I *3186:CLK I *D sg13g2_dfrbpq_1
*I *3187:CLK I *D sg13g2_dfrbpq_1
*I *3404:X O *D sg13g2_buf_16
*CAP
1 *3197:CLK 0.000260129
2 *3196:CLK 0
3 *3188:CLK 0
4 *3443:A 0
5 *3186:CLK 0.000201195
6 *3187:CLK 0.000188886
7 *3404:X 0.000658905
8 *321:46 0.000537773
9 *321:37 0.000389578
10 *321:19 0.000254317
11 *321:17 0.000165057
12 *321:8 0.000847791
13 *3186:CLK *323:10 0.0010878
14 *3186:CLK *638:36 0.000874843
15 *3186:CLK *638:47 0.00023464
16 *3187:CLK *3628:f_osc_multiply_factor[3] 0
17 *3187:CLK *3628:f_osc_multiply_factor[4] 0
18 *3197:CLK *599:36 0.00146506
19 *3197:CLK *638:80 0.000962786
20 *3197:CLK *638:99 0.000502791
21 *321:8 *3188:RESET_B 1.54008e-05
22 *321:8 *322:8 0
23 *321:19 *323:10 0.000287256
24 *321:19 *638:47 0.00026599
25 *321:37 *323:10 0.000607939
26 *321:37 *638:47 0.000106064
27 *321:37 *638:58 0.000501875
28 *321:46 *323:10 0.000128334
29 *321:46 *599:36 0.00130194
30 *321:46 *638:58 0.000959232
31 *321:46 *638:69 0.000235075
32 *321:46 *638:80 0.000290072
33 *299:8 *3187:CLK 0
34 *320:8 *321:8 0
*RES
1 *3404:X *321:8 25.0335 
2 *321:8 *3187:CLK 21.0942 
3 *321:8 *321:17 20 
4 *321:17 *321:19 1.339 
5 *321:19 *3186:CLK 45.047 
6 *321:19 *3443:A 40 
7 *321:17 *321:37 2.8222 
8 *321:37 *3188:CLK 40 
9 *321:37 *321:46 6.7774 
10 *321:46 *3196:CLK 40 
11 *321:46 *3197:CLK 46.7774 
*END

*D_NET *322 0.0281062
*CONN
*I *3230:CLK I *D sg13g2_dfrbpq_1
*I *3228:CLK I *D sg13g2_dfrbpq_1
*I *3181:CLK I *D sg13g2_dfrbpq_1
*I *3184:CLK I *D sg13g2_dfrbpq_1
*I *3180:CLK I *D sg13g2_dfrbpq_1
*I *3405:X O *D sg13g2_buf_16
*CAP
1 *3230:CLK 0
2 *3228:CLK 0.000209391
3 *3181:CLK 0
4 *3184:CLK 0
5 *3180:CLK 0
6 *3405:X 0.000551218
7 *322:39 0.000359358
8 *322:33 0.000944687
9 *322:18 0.00184919
10 *322:12 0.00173628
11 *322:10 0.00242785
12 *322:8 0.00271604
13 *3228:CLK *422:8 0
14 *3228:CLK *639:14 0
15 *3228:CLK *708:33 1.54008e-05
16 *322:8 *323:6 0
17 *322:10 *3077:A1 0.000805691
18 *322:10 *419:10 0.000233078
19 *322:10 *420:14 0
20 *322:10 *426:28 0.000500214
21 *322:10 *434:27 0.000549143
22 *322:10 *435:10 0
23 *322:10 *598:44 0.000555736
24 *322:10 *598:57 0.000927462
25 *322:10 *599:8 0
26 *322:10 *600:24 0.00140881
27 *322:10 *641:118 0
28 *322:12 *419:10 0.000128742
29 *322:12 *486:16 0
30 *322:18 *485:8 0.000711016
31 *322:18 *486:8 0.000208035
32 *322:18 *562:106 0
33 *322:18 *630:92 0
34 *322:33 *626:18 0.000663716
35 *322:33 *704:16 0.000613071
36 *322:33 *706:59 0.000663716
37 *322:39 *706:47 0.000234766
38 *3230:D *3228:CLK 1.54008e-05
39 *3401:A *322:39 7.51285e-05
40 *3402:A *322:33 4.77425e-05
41 *3403:A *322:8 0
42 *75:8 *322:39 0.00172015
43 *154:12 *322:18 0.000240377
44 *243:12 *322:10 0.00131585
45 *243:12 *322:12 0.000740549
46 *243:12 *322:18 0.00171811
47 *246:100 *322:10 0
48 *272:20 *322:10 0.00174373
49 *288:21 *322:33 0
50 *288:41 *322:33 0
51 *308:33 *322:18 0
52 *311:25 *322:39 0
53 *312:10 *322:39 0.00134732
54 *318:8 *322:33 0
55 *318:31 *322:33 0.000129281
56 *319:12 *322:33 0
57 *320:8 *322:8 0
58 *321:8 *322:8 0
*RES
1 *3405:X *322:8 45.5105 
2 *322:8 *322:10 32.239 
3 *322:10 *322:12 3.5638 
4 *322:12 *322:18 34.1728 
5 *322:18 *3180:CLK 20 
6 *322:18 *322:33 48.2194 
7 *322:33 *322:39 48.0134 
8 *322:39 *3184:CLK 20 
9 *322:33 *3181:CLK 20 
10 *322:12 *3228:CLK 41.8334 
11 *322:10 *3230:CLK 40 
*END

*D_NET *323 0.0291016
*CONN
*I *3244:CLK I *D sg13g2_dfrbpq_1
*I *3231:CLK I *D sg13g2_dfrbpq_1
*I *3227:CLK I *D sg13g2_dfrbpq_1
*I *3179:CLK I *D sg13g2_dfrbpq_1
*I *3241:CLK I *D sg13g2_dfrbpq_1
*I *3406:X O *D sg13g2_buf_16
*CAP
1 *3244:CLK 3.03288e-05
2 *3231:CLK 0.000648442
3 *3227:CLK 0
4 *3179:CLK 0.000794901
5 *3241:CLK 3.73836e-05
6 *3406:X 0.00113354
7 *323:43 0.000954004
8 *323:37 0.000453374
9 *323:31 0.00168201
10 *323:20 0.00123291
11 *323:10 0.00231166
12 *323:8 0.0018251
13 *323:6 0.00113354
14 *3179:CLK *417:79 0
15 *3179:CLK *600:65 7.86681e-05
16 *3231:CLK *702:12 0
17 *3244:CLK *421:14 4.77425e-05
18 *323:6 *3024:A0 0
19 *323:6 *3024:A1 0
20 *323:6 *3024:S 0
21 *323:6 *404:25 0.000112198
22 *323:6 *499:17 0
23 *323:10 *385:34 0
24 *323:10 *530:14 0
25 *323:10 *533:16 0.000867545
26 *323:10 *583:20 0.000498295
27 *323:10 *599:36 0.00201568
28 *323:10 *625:20 0
29 *323:10 *630:26 0.000126412
30 *323:10 *638:36 0
31 *323:10 *641:112 0
32 *323:20 *3628:ext_trim[3] 0.000176252
33 *323:20 *533:16 0.000659027
34 *323:20 *625:20 0
35 *323:37 *328:84 0
36 *323:43 *487:10 0
37 *3186:CLK *323:10 0.0010878
38 *3240:CLK *3179:CLK 0.000231136
39 *3244:D *323:20 4.77425e-05
40 *3403:A *323:6 0.000532893
41 *3405:A *323:6 0
42 *76:12 *323:31 0.00180979
43 *76:12 *323:37 0.000288675
44 *109:10 *323:10 0.000289003
45 *111:10 *323:10 0.000287342
46 *150:22 *323:43 0.000712253
47 *235:34 *323:10 0
48 *246:80 *323:43 0.00076437
49 *246:100 *323:20 0.000234103
50 *264:10 *3179:CLK 0.000497649
51 *299:10 *323:31 0
52 *299:10 *323:37 0
53 *308:33 *3179:CLK 0
54 *319:51 *3179:CLK 0.00061166
55 *320:27 *323:10 0.00156753
56 *320:33 *323:10 0.00229707
57 *321:19 *323:10 0.000287256
58 *321:37 *323:10 0.000607939
59 *321:46 *323:10 0.000128334
60 *322:8 *323:6 0
*RES
1 *3406:X *323:6 31.1343 
2 *323:6 *323:8 20 
3 *323:8 *323:10 31.003 
4 *323:10 *323:20 25.356 
5 *323:20 *3241:CLK 20.3193 
6 *323:20 *323:31 28.5078 
7 *323:31 *323:37 22.9561 
8 *323:37 *323:43 43.5638 
9 *323:43 *3179:CLK 27.8898 
10 *323:37 *3227:CLK 20 
11 *323:31 *3231:CLK 45.5105 
12 *323:10 *3244:CLK 40.3193 
*END

*D_NET *324 0.036784
*CONN
*I *3315:CLK I *D sg13g2_dfrbpq_1
*I *3300:CLK I *D sg13g2_dfrbpq_1
*I *3330:CLK I *D sg13g2_dfrbpq_1
*I *3301:CLK I *D sg13g2_dfrbpq_1
*I *3302:CLK I *D sg13g2_dfrbpq_1
*I *3298:CLK I *D sg13g2_dfrbpq_1
*I *3407:X O *D sg13g2_buf_16
*CAP
1 *3315:CLK 0.000327688
2 *3300:CLK 7.70576e-05
3 *3330:CLK 0.000116741
4 *3301:CLK 7.28994e-05
5 *3302:CLK 0
6 *3298:CLK 0
7 *3407:X 0.00068295
8 *324:32 0.000758782
9 *324:24 0.00134211
10 *324:18 0.00105146
11 *324:16 0.000610232
12 *324:14 0.00163377
13 *324:12 0.0107508
14 *324:10 0.00964758
15 *3301:CLK *3579:A 0.000112198
16 *3315:CLK *3315:RESET_B 0
17 *3315:CLK *633:38 0
18 *3330:CLK *3330:RESET_B 0
19 *324:10 *3444:A 0
20 *324:10 *325:14 0
21 *324:12 *3118:A0 0
22 *324:12 *3119:A0 0
23 *324:12 *325:16 0
24 *324:12 *325:18 0
25 *324:12 *357:14 0
26 *324:12 *358:8 0
27 *324:12 *359:8 0.00141271
28 *324:12 *396:8 0
29 *324:12 *398:10 0.00162236
30 *324:12 *398:14 0
31 *324:12 *400:8 0.00146276
32 *324:12 *477:10 0
33 *324:12 *477:25 0
34 *324:12 *478:12 0
35 *324:12 *478:14 0
36 *324:12 *479:8 0.00114184
37 *324:12 *479:12 0
38 *324:12 *479:49 0.000502205
39 *324:12 *635:33 0
40 *324:12 *636:39 0
41 *324:12 *658:14 0
42 *324:14 *325:18 0
43 *324:14 *325:20 0
44 *324:14 *325:22 0
45 *324:14 *361:12 0
46 *324:14 *540:10 0
47 *324:14 *582:75 0
48 *324:14 *658:14 0
49 *324:16 *325:22 0
50 *324:16 *582:75 0
51 *324:18 *3300:RESET_B 0.000235055
52 *324:18 *3301:RESET_B 0.000586671
53 *324:18 *325:22 0
54 *324:18 *582:75 0
55 *324:18 *619:36 0.000181608
56 *324:24 *3301:RESET_B 0.000503996
57 *324:24 *325:22 0
58 *324:24 *582:75 0
59 *324:32 *3134:S 0.000372055
60 *324:32 *325:22 0
61 *324:32 *325:28 0
62 *324:32 *371:25 0.00012816
63 *324:32 *374:18 0
64 *324:32 *582:69 0
65 *324:32 *582:75 0.000980659
66 *324:32 *589:27 0.00023464
67 *204:10 *324:12 0.000235075
68 *212:10 *324:14 0
*RES
1 *3407:X *324:10 47.3748 
2 *324:10 *324:12 105.163 
3 *324:12 *324:14 14.6878 
4 *324:14 *324:16 1.0918 
5 *324:16 *324:18 5.7886 
6 *324:18 *324:24 26.9731 
7 *324:24 *324:32 49.5996 
8 *324:32 *3298:CLK 20 
9 *324:24 *3302:CLK 20 
10 *324:18 *3301:CLK 40.7519 
11 *324:16 *3330:CLK 41.1845 
12 *324:14 *3300:CLK 40.7519 
13 *324:12 *3315:CLK 43.2651 
*END

*D_NET *325 0.0320317
*CONN
*I *3444:A I *D sg13g2_inv_1
*I *3289:CLK I *D sg13g2_dfrbpq_1
*I *3329:CLK I *D sg13g2_dfrbpq_1
*I *3328:CLK I *D sg13g2_dfrbpq_1
*I *3299:CLK I *D sg13g2_dfrbpq_1
*I *3325:CLK I *D sg13g2_dfrbpq_1
*I *3408:X O *D sg13g2_buf_16
*CAP
1 *3444:A 7.19751e-05
2 *3289:CLK 0
3 *3329:CLK 0
4 *3328:CLK 0.000234976
5 *3299:CLK 0
6 *3325:CLK 0
7 *3408:X 0.000114926
8 *325:28 0.0010629
9 *325:22 0.00286209
10 *325:20 0.00223479
11 *325:18 0.000885431
12 *325:16 0.0102501
13 *325:14 0.0098772
14 *325:10 0.000383851
15 *325:8 0.000114926
16 *3328:CLK *373:8 0
17 *3328:CLK *620:37 0.000176674
18 *325:8 *475:31 0
19 *325:16 *3119:A0 0.000661886
20 *325:16 *358:56 0
21 *325:16 *359:8 0
22 *325:16 *360:40 0
23 *325:16 *397:8 0
24 *325:16 *397:10 0
25 *325:16 *397:20 0
26 *325:16 *398:10 0
27 *325:16 *398:14 0.00167356
28 *325:16 *399:14 0
29 *325:16 *400:8 0
30 *325:16 *479:8 0
31 *325:16 *479:12 0.000478206
32 *325:16 *596:38 0
33 *325:16 *633:60 0
34 *325:18 *633:42 0
35 *325:18 *633:60 0
36 *325:18 *659:12 0
37 *325:20 *540:10 0.000181695
38 *325:22 *3300:RESET_B 0
39 *325:22 *3301:RESET_B 0
40 *325:22 *3574:A 0
41 *325:22 *374:10 0
42 *325:22 *374:12 0
43 *325:22 *374:18 0
44 *325:22 *540:10 0.000182109
45 *325:22 *619:36 0
46 *325:22 *620:37 0
47 *325:28 *2983:A0 0.000242213
48 *325:28 *3291:RESET_B 0
49 *325:28 *3325:RESET_B 0
50 *325:28 *371:10 0
51 *325:28 *374:18 0
52 *325:28 *582:69 0
53 *325:28 *665:8 0
54 *3298:D *325:28 0
55 *133:8 *325:16 0
56 *212:10 *325:18 0.000342122
57 *324:10 *3444:A 0
58 *324:10 *325:14 0
59 *324:12 *325:16 0
60 *324:12 *325:18 0
61 *324:14 *325:18 0
62 *324:14 *325:20 0
63 *324:14 *325:22 0
64 *324:16 *325:22 0
65 *324:18 *325:22 0
66 *324:24 *325:22 0
67 *324:32 *325:22 0
68 *324:32 *325:28 0
*RES
1 *3408:X *325:8 41.0918 
2 *325:8 *325:10 20 
3 *325:10 *325:14 23.3475 
4 *325:14 *325:16 106.893 
5 *325:16 *325:18 7.7662 
6 *325:18 *325:20 2.575 
7 *325:20 *325:22 18.1486 
8 *325:22 *325:28 32.0098 
9 *325:28 *3325:CLK 20 
10 *325:22 *3299:CLK 40 
11 *325:20 *3328:CLK 42.6162 
12 *325:18 *3329:CLK 40 
13 *325:16 *3289:CLK 40 
14 *325:10 *3444:A 20.7519 
*END

*D_NET *326 0.0535467
*CONN
*I *3217:CLK I *D sg13g2_dfrbpq_1
*I *3216:CLK I *D sg13g2_dfrbpq_1
*I *3290:CLK I *D sg13g2_dfrbpq_1
*I *3245:CLK I *D sg13g2_dfrbpq_1
*I *3317:CLK I *D sg13g2_dfrbpq_1
*I *3303:CLK I *D sg13g2_dfrbpq_1
*I *3409:X O *D sg13g2_buf_16
*CAP
1 *3217:CLK 0
2 *3216:CLK 0
3 *3290:CLK 7.98135e-05
4 *3245:CLK 0.000712169
5 *3317:CLK 0
6 *3303:CLK 0
7 *3409:X 0.000157246
8 *326:40 0.00057886
9 *326:32 0.00161916
10 *326:26 0.00195631
11 *326:22 0.000842129
12 *326:16 0.000894275
13 *326:10 0.00746971
14 *326:8 0.00729116
15 *3245:CLK *3628:clk2_phase_sel[0] 0
16 *3245:CLK *514:8 0
17 *3245:CLK *619:12 0
18 *3245:CLK *622:67 0
19 *326:10 *3628:clk0_phase_sel[3] 0.00012816
20 *326:10 *330:16 0.00792933
21 *326:10 *330:22 0
22 *326:10 *330:65 0.00145637
23 *326:10 *337:12 0.00804125
24 *326:10 *353:27 0.000159096
25 *326:10 *387:39 0.00242149
26 *326:10 *389:8 0.000213787
27 *326:10 *389:12 0.00162475
28 *326:10 *403:23 0
29 *326:10 *405:8 0
30 *326:10 *406:10 7.52149e-05
31 *326:10 *411:10 0
32 *326:10 *411:14 0
33 *326:10 *584:59 0
34 *326:10 *584:72 0
35 *326:10 *599:75 0
36 *326:10 *599:77 0
37 *326:10 *599:81 0
38 *326:10 *634:8 0
39 *326:10 *636:105 0.000553247
40 *326:10 *637:10 0
41 *326:10 *637:55 0.000608025
42 *326:10 *637:76 0.00114241
43 *326:10 *646:57 0.00221936
44 *326:10 *656:27 0.000394519
45 *326:16 *353:27 0.000607939
46 *326:16 *406:10 0.00053281
47 *326:16 *406:12 7.51285e-05
48 *326:22 *405:16 0.000609684
49 *326:22 *405:26 0
50 *326:26 *405:26 0
51 *326:32 *583:127 0
52 *326:32 *621:75 0
53 *326:32 *622:52 0
54 *326:32 *661:10 0.000341814
55 *326:40 *3138:A1 0.00017625
56 *326:40 *3527:A 0
57 *326:40 *328:71 0.000554077
58 *326:40 *583:127 0.00124657
59 *326:40 *621:75 0
60 *326:40 *622:52 0
61 *3437:A *326:40 0
62 *250:8 *326:10 0.000391164
63 *251:12 *326:10 0.000128248
64 *251:23 *326:10 0.000315222
65 *299:60 *326:22 0
66 *299:60 *326:26 0
67 *299:60 *326:32 0
68 *299:71 *326:22 0
*RES
1 *3409:X *326:8 41.6171 
2 *326:8 *326:10 108.377 
3 *326:10 *326:16 24.6556 
4 *326:16 *326:22 26.4169 
5 *326:22 *326:26 1.9055 
6 *326:26 *326:32 29.0434 
7 *326:32 *326:40 48.0546 
8 *326:40 *3303:CLK 20 
9 *326:32 *3317:CLK 20 
10 *326:26 *3245:CLK 45.7268 
11 *326:22 *3290:CLK 40.7519 
12 *326:16 *3216:CLK 20 
13 *326:10 *3217:CLK 40 
*END

*D_NET *327 0.0511615
*CONN
*I *3445:A I *D sg13g2_inv_1
*I *3288:CLK I *D sg13g2_dfrbpq_1
*I *3314:CLK I *D sg13g2_dfrbpq_1
*I *3218:CLK I *D sg13g2_dfrbpq_1
*I *3316:CLK I *D sg13g2_dfrbpq_1
*I *3331:CLK I *D sg13g2_dfrbpq_1
*I *3410:X O *D sg13g2_buf_16
*CAP
1 *3445:A 3.44936e-05
2 *3288:CLK 0.000265165
3 *3314:CLK 0
4 *3218:CLK 0.000597174
5 *3316:CLK 0
6 *3331:CLK 0
7 *3410:X 4.2499e-05
8 *327:61 0.000715284
9 *327:32 0.000606831
10 *327:28 0.00142433
11 *327:22 0.00199476
12 *327:20 0.00141767
13 *327:16 0.00720518
14 *327:14 0.00734946
15 *327:10 0.000566234
16 *327:8 4.2499e-05
17 *3218:CLK *3124:S 0
18 *3218:CLK *594:18 0
19 *3218:CLK *633:8 0.000176484
20 *3288:CLK *3288:RESET_B 0
21 *3288:CLK *3314:RESET_B 0
22 *327:8 *330:12 0.00023547
23 *327:8 *646:57 0.00023547
24 *327:16 *3044:S 0
25 *327:16 *3281:RESET_B 0.000610355
26 *327:16 *3628:bias 0
27 *327:16 *329:44 0
28 *327:16 *331:10 0.0129288
29 *327:16 *331:14 0.000926962
30 *327:16 *394:12 0
31 *327:16 *394:18 0
32 *327:16 *394:31 0.000981323
33 *327:16 *395:39 0.000554077
34 *327:16 *401:10 0
35 *327:16 *401:16 0
36 *327:16 *475:31 0
37 *327:16 *475:35 0
38 *327:16 *476:8 0
39 *327:16 *480:12 0
40 *327:16 *597:23 0.000181608
41 *327:16 *597:32 0
42 *327:16 *597:43 0
43 *327:16 *597:54 0
44 *327:16 *646:83 0
45 *327:20 *3622:SEL 0
46 *327:20 *329:44 0.00060844
47 *327:20 *329:50 0.000586257
48 *327:20 *480:12 0
49 *327:20 *480:14 0
50 *327:20 *654:10 0
51 *327:22 *3219:RESET_B 0
52 *327:22 *329:50 0.000767035
53 *327:22 *511:10 0.000767952
54 *327:22 *512:10 0
55 *327:22 *594:33 0
56 *327:22 *654:10 0
57 *327:28 *511:10 0.000181279
58 *327:28 *511:16 0.00156883
59 *327:28 *512:10 0
60 *327:28 *583:154 0
61 *327:28 *660:8 0.000341204
62 *327:28 *682:10 0
63 *327:32 *362:10 0.00114116
64 *327:32 *362:18 0
65 *327:32 *511:16 0.00279763
66 *327:32 *512:10 0
67 *327:32 *542:12 0.0011464
68 *327:61 *3120:A0 0
69 *327:61 *3120:S 0.000241167
70 *2989:A2 *327:22 0.000394237
71 *3285:D *327:61 0
72 *3348:CLK *3218:CLK 0.000177157
73 *56:12 *3218:CLK 0.000209499
74 *57:8 *327:28 0
75 *129:8 *327:16 0
76 *299:77 *327:22 0.001013
77 *299:77 *327:28 0.00012816
*RES
1 *3410:X *327:8 41.0918 
2 *327:8 *327:10 20 
3 *327:10 *327:14 25.0779 
4 *327:14 *327:16 87.6118 
5 *327:16 *327:20 5.8607 
6 *327:20 *327:22 10.4854 
7 *327:22 *327:28 11.1549 
8 *327:28 *327:32 32.9574 
9 *327:32 *3331:CLK 20 
10 *327:28 *3316:CLK 40 
11 *327:22 *3218:CLK 45.9637 
12 *327:20 *327:61 24.2127 
13 *327:61 *3314:CLK 20 
14 *327:61 *3288:CLK 22.8634 
15 *327:10 *3445:A 20.3193 
*END

*D_NET *328 0.063536
*CONN
*I *3457:A I *D sg13g2_inv_1
*I *3243:CLK I *D sg13g2_dfrbpq_1
*I *3246:CLK I *D sg13g2_dfrbpq_1
*I *3291:CLK I *D sg13g2_dfrbpq_1
*I *3339:CLK I *D sg13g2_dfrbpq_1
*I *3324:CLK I *D sg13g2_dfrbpq_1
*I *3411:X O *D sg13g2_buf_16
*CAP
1 *3457:A 0
2 *3243:CLK 0
3 *3246:CLK 0
4 *3291:CLK 0
5 *3339:CLK 0.000186624
6 *3324:CLK 0
7 *3411:X 0
8 *328:92 0.0022366
9 *328:84 0.00273572
10 *328:80 0.00129425
11 *328:71 0.00116738
12 *328:56 0.00183446
13 *328:43 0.00122684
14 *328:32 0.00174355
15 *328:26 0.00145037
16 *328:20 0.00562569
17 *328:18 0.00597324
18 *328:10 0.00128834
19 *328:6 6.571e-05
20 *3339:CLK *3133:S 1.54008e-05
21 *3339:CLK *3291:RESET_B 0
22 *3339:CLK *339:46 0
23 *328:10 *600:77 7.78179e-05
24 *328:18 *600:77 7.78179e-05
25 *328:20 *339:12 0.010265
26 *328:20 *416:24 0
27 *328:20 *628:22 0.000363174
28 *328:20 *641:34 0.00108102
29 *328:32 *339:12 0.000337321
30 *328:32 *384:26 0.000929036
31 *328:32 *575:18 0.000927139
32 *328:32 *641:34 0
33 *328:43 *384:26 0.000318607
34 *328:43 *575:18 0.000768037
35 *328:43 *582:55 0
36 *328:43 *613:74 0
37 *328:56 *3133:S 0.000596185
38 *328:56 *551:10 0
39 *328:56 *583:127 0.000875675
40 *328:56 *622:39 0
41 *328:71 *3246:RESET_B 0
42 *328:71 *3299:RESET_B 8.00842e-05
43 *328:71 *3317:D 0.000208227
44 *328:71 *583:127 0
45 *328:71 *621:58 0.000433203
46 *328:71 *622:39 0
47 *328:71 *622:52 0
48 *328:71 *641:85 0.000144542
49 *328:80 *345:12 0
50 *328:80 *356:20 0.000870681
51 *328:84 *630:80 0.000400669
52 *328:84 *702:12 0.000626835
53 *328:92 *3366:RESET_B 0
54 *328:92 *414:40 0
55 *328:92 *436:28 0
56 *328:92 *498:17 0
57 *328:92 *631:26 0
58 *3240:CLK *328:84 0
59 *44:8 *3339:CLK 0
60 *44:12 *328:43 0
61 *47:16 *328:32 0
62 *76:12 *328:92 0.00311546
63 *166:10 *328:92 0
64 *214:10 *328:56 0
65 *226:10 *328:71 0.000926632
66 *243:12 *328:80 0.00250968
67 *247:44 *328:18 0.000936934
68 *264:10 *328:80 0.000335243
69 *270:38 *328:32 0.000301579
70 *293:41 *328:92 0.00113933
71 *299:14 *328:20 0.00749184
72 *299:22 *328:20 0
73 *300:26 *328:18 0
74 *323:37 *328:84 0
75 *326:40 *328:71 0.000554077
*RES
1 *3411:X *328:6 40 
2 *328:6 *328:10 20.5356 
3 *328:10 *328:18 44.841 
4 *328:18 *328:20 68.8864 
5 *328:20 *328:26 40.5974 
6 *328:26 *328:32 36.5212 
7 *328:32 *3324:CLK 40 
8 *328:32 *328:43 25.2942 
9 *328:43 *3339:CLK 21.8334 
10 *328:43 *328:56 28.0546 
11 *328:56 *3291:CLK 40 
12 *328:56 *328:71 33.287 
13 *328:71 *3246:CLK 20 
14 *328:10 *328:80 31.7214 
15 *328:80 *328:84 25.2942 
16 *328:84 *328:92 44.4728 
17 *328:92 *3243:CLK 40 
18 *328:84 *3457:A 20 
*END

*D_NET *329 0.0372282
*CONN
*I *3214:CLK I *D sg13g2_dfrbpq_1
*I *3213:CLK I *D sg13g2_dfrbpq_1
*I *3285:CLK I *D sg13g2_dfrbpq_1
*I *3219:CLK I *D sg13g2_dfrbpq_1
*I *3287:CLK I *D sg13g2_dfrbpq_1
*I *3286:CLK I *D sg13g2_dfrbpq_1
*I *3412:X O *D sg13g2_buf_16
*CAP
1 *3214:CLK 0
2 *3213:CLK 0
3 *3285:CLK 0
4 *3219:CLK 0
5 *3287:CLK 0.000240966
6 *3286:CLK 0
7 *3412:X 0.000382762
8 *329:50 0.00112543
9 *329:44 0.00164527
10 *329:26 0.000475377
11 *329:24 0.00123218
12 *329:16 0.000781911
13 *329:10 0.00662428
14 *329:8 0.00670306
15 *3287:CLK *3287:RESET_B 0
16 *329:10 *3055:A1 0.00114167
17 *329:10 *3057:A1 0.000181366
18 *329:10 *3199:RESET_B 0
19 *329:10 *3201:RESET_B 0
20 *329:10 *3628:f_clk1_divider[4] 0
21 *329:10 *333:10 0.00895154
22 *329:10 *333:14 0
23 *329:10 *333:16 0
24 *329:10 *333:22 0
25 *329:10 *334:55 0.00113988
26 *329:10 *337:30 0
27 *329:10 *387:10 0
28 *329:10 *392:10 0
29 *329:10 *392:14 0
30 *329:10 *398:31 0
31 *329:10 *403:8 0
32 *329:10 *410:10 0.000374128
33 *329:10 *412:18 0.000265903
34 *329:10 *596:72 0.000554077
35 *329:10 *635:73 0
36 *329:10 *636:14 0
37 *329:10 *636:76 0
38 *329:16 *3628:clk0_phase_sel[0] 0
39 *329:16 *403:8 0
40 *329:16 *594:63 0
41 *329:24 *3050:S 8.00842e-05
42 *329:24 *401:16 0
43 *329:24 *637:16 0
44 *329:24 *653:22 0.00151163
45 *329:24 *656:10 0.00151379
46 *329:26 *3287:RESET_B 0
47 *329:26 *401:16 0
48 *329:26 *637:16 0
49 *329:44 *536:10 0
50 *329:44 *536:18 0
51 *329:44 *593:34 0
52 *329:50 *3502:A 0
53 *329:50 *512:8 0
54 *329:50 *536:18 0
55 *329:50 *593:8 0
56 *329:50 *593:19 0
57 *2989:A2 *329:50 0
58 *3410:A *329:8 0
59 *282:19 *329:10 0
60 *282:23 *329:10 0
61 *283:19 *329:10 0.000212543
62 *283:19 *329:16 0.000128576
63 *283:34 *329:10 0
64 *327:16 *329:44 0
65 *327:20 *329:44 0.00060844
66 *327:20 *329:50 0.000586257
67 *327:22 *329:50 0.000767035
*RES
1 *3412:X *329:8 43.3475 
2 *329:8 *329:10 83.1622 
3 *329:10 *329:16 22.8634 
4 *329:16 *329:24 48.858 
5 *329:24 *329:26 2.266 
6 *329:26 *3286:CLK 20 
7 *329:26 *3287:CLK 22.4308 
8 *329:24 *329:44 25.5414 
9 *329:44 *329:50 32.0098 
10 *329:50 *3219:CLK 20 
11 *329:44 *3285:CLK 40 
12 *329:16 *3213:CLK 20 
13 *329:10 *3214:CLK 40 
*END

*D_NET *330 0.0459848
*CONN
*I *3446:A I *D sg13g2_inv_1
*I *3198:CLK I *D sg13g2_dfrbpq_1
*I *3215:CLK I *D sg13g2_dfrbpq_1
*I *3212:CLK I *D sg13g2_dfrbpq_1
*I *3211:CLK I *D sg13g2_dfrbpq_1
*I *3210:CLK I *D sg13g2_dfrbpq_1
*I *3413:X O *D sg13g2_buf_16
*CAP
1 *3446:A 5.78122e-05
2 *3198:CLK 2.68585e-05
3 *3215:CLK 0
4 *3212:CLK 0
5 *3211:CLK 0.000220752
6 *3210:CLK 0.000674336
7 *3413:X 6.98279e-05
8 *330:65 0.000454815
9 *330:57 0.000821101
10 *330:39 0.000759313
11 *330:33 0.00146286
12 *330:22 0.00322424
13 *330:16 0.00375226
14 *330:12 0.00280267
15 *330:8 0.00114307
16 *3198:CLK *636:14 4.77425e-05
17 *3210:CLK *3042:A0 4.77425e-05
18 *3210:CLK *3042:A1 0
19 *3210:CLK *3043:A0 0
20 *3210:CLK *395:26 0.000290335
21 *3210:CLK *396:25 0
22 *3210:CLK *397:20 0
23 *3211:CLK *3211:RESET_B 0
24 *3211:CLK *634:71 0
25 *330:8 *334:28 0.000235556
26 *330:12 *334:28 0.00124883
27 *330:12 *334:34 0.00289657
28 *330:12 *646:57 0.0022728
29 *330:16 *3628:f_clk2_divider[3] 0
30 *330:16 *334:36 0.00429669
31 *330:16 *334:42 0.00183597
32 *330:16 *391:18 0
33 *330:16 *646:77 0
34 *330:22 *3628:clk0_phase_sel[1] 0
35 *330:22 *3628:clk0_phase_sel[4] 0.00011101
36 *330:22 *3628:f_clk2_divider[3] 0.000662388
37 *330:22 *389:22 0.000288377
38 *330:22 *596:64 0
39 *330:22 *635:54 0.000884536
40 *330:22 *637:55 0.00189234
41 *330:33 *3628:clk0_phase_sel[1] 0.00012816
42 *330:33 *402:8 0.000160341
43 *330:33 *409:12 0
44 *330:33 *653:22 0
45 *330:39 *3628:clk0_phase_sel[0] 0.000272746
46 *330:39 *402:8 0.000289003
47 *330:39 *409:12 0
48 *330:39 *634:71 0
49 *330:57 *3628:clk0_phase_sel[0] 0
50 *330:57 *596:14 0
51 *330:57 *636:14 0.000305175
52 *330:65 *3628:clk1_phase_sel[2] 4.77425e-05
53 *330:65 *405:8 0.000659136
54 *330:65 *637:40 0
55 *330:65 *637:55 0.00012816
56 *3207:D *3210:CLK 0
57 *283:32 *330:22 0.00189234
58 *283:34 *330:8 0
59 *283:34 *330:12 0
60 *283:34 *330:22 0
61 *326:10 *330:16 0.00792933
62 *326:10 *330:22 0
63 *326:10 *330:65 0.00145637
64 *327:8 *330:12 0.00023547
*RES
1 *3413:X *330:8 41.0918 
2 *330:8 *330:12 19.4567 
3 *330:12 *330:16 37.2242 
4 *330:16 *330:22 44.5552 
5 *330:22 *3210:CLK 26.3757 
6 *330:22 *330:33 25.5414 
7 *330:33 *330:39 25.9843 
8 *330:39 *3211:CLK 22.1836 
9 *330:39 *3212:CLK 20 
10 *330:33 *330:57 23.1312 
11 *330:57 *330:65 47.0967 
12 *330:65 *3215:CLK 20 
13 *330:57 *3198:CLK 20.3193 
14 *330:8 *3446:A 40.5356 
*END

*D_NET *331 0.0410705
*CONN
*I *3209:CLK I *D sg13g2_dfrbpq_1
*I *3222:CLK I *D sg13g2_dfrbpq_1
*I *3207:CLK I *D sg13g2_dfrbpq_1
*I *3199:CLK I *D sg13g2_dfrbpq_1
*I *3206:CLK I *D sg13g2_dfrbpq_1
*I *3208:CLK I *D sg13g2_dfrbpq_1
*I *3414:X O *D sg13g2_buf_16
*CAP
1 *3209:CLK 0.000499345
2 *3222:CLK 0
3 *3207:CLK 0.000384203
4 *3199:CLK 0.000436803
5 *3206:CLK 9.28559e-05
6 *3208:CLK 0.000760664
7 *3414:X 0.00121372
8 *331:35 0.000612285
9 *331:33 0.000564983
10 *331:29 0.000244663
11 *331:14 0.0010793
12 *331:10 0.00616226
13 *331:8 0.00549079
14 *331:6 0.00121372
15 *3199:CLK *3057:A0 0
16 *3199:CLK *3628:clk0_phase_sel[2] 0.0006178
17 *3199:CLK *596:64 0
18 *3206:CLK *653:22 0.000501045
19 *3206:CLK *656:10 0.00050146
20 *3207:CLK *3628:clk0_phase_sel[2] 0
21 *3207:CLK *396:25 0
22 *3207:CLK *636:48 0
23 *3207:CLK *636:61 0.000596556
24 *3208:CLK *3044:A0 0
25 *3208:CLK *3044:S 0
26 *3208:CLK *3058:S 0
27 *3208:CLK *597:8 0
28 *3208:CLK *635:33 0
29 *3209:CLK *3119:A0 0
30 *3209:CLK *635:25 0
31 *3209:CLK *635:33 0
32 *331:6 *334:20 0.00114934
33 *331:6 *337:8 0
34 *331:10 *3116:S 0.000342629
35 *331:10 *413:12 0.00140674
36 *331:10 *413:39 0
37 *331:10 *413:43 0
38 *331:10 *475:31 0
39 *331:10 *605:89 0.000213353
40 *331:14 *3628:bias 0.000607939
41 *331:14 *413:12 0.000319023
42 *331:33 *653:22 0.000555321
43 *331:33 *656:10 0.000533225
44 *331:35 *653:22 0.000447182
45 *331:35 *656:10 0.000425501
46 *3209:D *3208:CLK 0
47 *3223:D *3209:CLK 0
48 *3284:D *3209:CLK 0.000242071
49 *3407:A *331:10 0
50 *3408:A *331:6 0
51 *291:264 *331:6 0
52 *315:10 *331:6 0
53 *315:10 *331:10 0
54 *327:16 *331:10 0.0129288
55 *327:16 *331:14 0.000926962
*RES
1 *3414:X *331:6 32.4321 
2 *331:6 *331:8 20 
3 *331:8 *331:10 74.7574 
4 *331:10 *331:14 24.3054 
5 *331:14 *3208:CLK 27.6117 
6 *331:14 *331:29 1.1845 
7 *331:29 *331:33 22.575 
8 *331:33 *331:35 2.0806 
9 *331:35 *3206:CLK 42.3278 
10 *331:35 *3199:CLK 44.5938 
11 *331:33 *3207:CLK 43.9964 
12 *331:29 *3222:CLK 20 
13 *331:10 *3209:CLK 44.9955 
*END

*D_NET *332 0.0251805
*CONN
*I *3192:CLK I *D sg13g2_dfrbpq_1
*I *3191:CLK I *D sg13g2_dfrbpq_1
*I *3193:CLK I *D sg13g2_dfrbpq_1
*I *3194:CLK I *D sg13g2_dfrbpq_1
*I *3190:CLK I *D sg13g2_dfrbpq_1
*I *3447:A I *D sg13g2_inv_1
*I *3415:X O *D sg13g2_buf_16
*CAP
1 *3192:CLK 0
2 *3191:CLK 0
3 *3193:CLK 0
4 *3194:CLK 0
5 *3190:CLK 0
6 *3447:A 0.000157449
7 *3415:X 0.000157449
8 *332:48 0.00068362
9 *332:40 0.00140971
10 *332:34 0.00137335
11 *332:30 0.00107605
12 *332:24 0.00548391
13 *332:22 0.00505512
14 *332:20 0.00388055
15 *332:18 0.00388055
16 *332:20 *336:6 0
17 *332:20 *336:16 0
18 *332:20 *341:6 0
19 *332:24 *413:49 0
20 *332:30 *3191:RESET_B 0.000181608
21 *332:30 *3439:A 0
22 *332:30 *413:49 0
23 *332:30 *646:10 0.00021346
24 *332:34 *599:67 0
25 *332:40 *3193:RESET_B 0
26 *332:40 *437:21 0
27 *332:40 *481:27 0
28 *332:48 *3029:S 0
29 *332:48 *3193:RESET_B 0.000480193
30 *332:48 *502:13 0
31 *332:48 *599:65 0
32 *332:48 *640:32 0.00103593
33 *3192:D *332:30 0.000111567
34 *3388:A *3447:A 0
35 *115:10 *332:30 0
36 *286:19 *332:34 0
37 *291:186 *332:20 0
38 *291:188 *3447:A 0
39 *291:188 *332:20 0
40 *305:8 *3447:A 0
41 *305:8 *332:20 0
*RES
1 *3415:X *3447:A 41.751 
2 *3415:X *332:18 20 
3 *332:18 *332:20 41.2 
4 *332:20 *332:22 20 
5 *332:22 *332:24 52.2622 
6 *332:24 *332:30 24.9028 
7 *332:30 *332:34 27.0246 
8 *332:34 *332:40 26.386 
9 *332:40 *332:48 48.858 
10 *332:48 *3190:CLK 20 
11 *332:40 *3194:CLK 20 
12 *332:34 *3193:CLK 40 
13 *332:30 *3191:CLK 20 
14 *332:24 *3192:CLK 40 
*END

*D_NET *333 0.0401713
*CONN
*I *3272:CLK I *D sg13g2_dfrbpq_1
*I *3251:CLK I *D sg13g2_dfrbpq_1
*I *3280:CLK I *D sg13g2_dfrbpq_1
*I *3200:CLK I *D sg13g2_dfrbpq_1
*I *3221:CLK I *D sg13g2_dfrbpq_1
*I *3284:CLK I *D sg13g2_dfrbpq_1
*I *3416:X O *D sg13g2_buf_16
*CAP
1 *3272:CLK 0.000576746
2 *3251:CLK 0.000731126
3 *3280:CLK 0.000471143
4 *3200:CLK 0.000169001
5 *3221:CLK 0
6 *3284:CLK 0.000684038
7 *3416:X 0.00254373
8 *333:63 0.00228005
9 *333:61 0.00187006
10 *333:22 0.00113846
11 *333:16 0.00135956
12 *333:14 0.00165793
13 *333:10 0.00498068
14 *333:8 0.00453003
15 *333:6 0.00164585
16 *3200:CLK *3628:f_clk2_divider[3] 0
17 *3251:CLK *338:27 0
18 *3272:CLK *467:8 0
19 *3272:CLK *602:12 0
20 *3272:CLK *643:33 0.000286402
21 *3272:CLK *643:48 0.000500277
22 *3280:CLK *646:83 0
23 *3284:CLK *3118:S 0
24 *3284:CLK *3119:A0 0
25 *3284:CLK *635:17 0
26 *3284:CLK *635:58 0
27 *3284:CLK *635:66 0
28 *333:6 *334:20 0
29 *333:6 *337:82 0
30 *333:14 *334:55 0.000212958
31 *333:16 *334:55 0.000929025
32 *333:22 *635:8 0
33 *333:61 *337:82 0
34 *333:61 *338:8 0
35 *333:61 *338:19 0
36 *333:63 *602:12 0
37 *3385:A *333:6 0
38 *3407:A *333:10 0
39 *3415:A *333:61 0
40 *283:34 *333:10 0
41 *283:34 *333:14 0.00124939
42 *283:34 *333:16 0.0023686
43 *283:34 *333:22 0.00103468
44 *291:233 *333:6 0
45 *291:237 *333:6 0
46 *302:8 *333:6 0
47 *305:8 *333:61 0
48 *315:10 *333:6 0
49 *315:10 *333:10 0
50 *329:10 *333:10 0.00895154
51 *329:10 *333:14 0
52 *329:10 *333:16 0
53 *329:10 *333:22 0
*RES
1 *3416:X *333:6 37.1907 
2 *333:6 *333:8 20 
3 *333:8 *333:10 52.015 
4 *333:10 *333:14 6.1079 
5 *333:14 *333:16 10.9798 
6 *333:16 *333:22 25.3354 
7 *333:22 *3284:CLK 26.1594 
8 *333:22 *3221:CLK 20 
9 *333:16 *3200:CLK 41.4008 
10 *333:14 *3280:CLK 44.429 
11 *3416:X *333:61 48.4549 
12 *333:61 *333:63 11.9686 
13 *333:63 *3251:CLK 47.8898 
14 *333:63 *3272:CLK 47.2718 
*END

*D_NET *334 0.0360988
*CONN
*I *3448:A I *D sg13g2_inv_1
*I *3203:CLK I *D sg13g2_dfrbpq_1
*I *3201:CLK I *D sg13g2_dfrbpq_1
*I *3205:CLK I *D sg13g2_dfrbpq_1
*I *3223:CLK I *D sg13g2_dfrbpq_1
*I *3204:CLK I *D sg13g2_dfrbpq_1
*I *3417:X O *D sg13g2_buf_16
*CAP
1 *3448:A 0
2 *3203:CLK 5.80404e-05
3 *3201:CLK 0.000164416
4 *3205:CLK 0
5 *3223:CLK 0.000495331
6 *3204:CLK 3.38934e-05
7 *3417:X 0.000180842
8 *334:61 0.000960075
9 *334:55 0.000841228
10 *334:42 0.000719897
11 *334:36 0.00184313
12 *334:34 0.00243522
13 *334:28 0.00252542
14 *334:20 0.00297031
15 *334:8 0.00174979
16 *3201:CLK *605:83 0.000224907
17 *3223:CLK *413:39 0
18 *3223:CLK *653:22 0.00183547
19 *3223:CLK *656:10 0.000768366
20 *334:8 *338:8 0
21 *334:20 *337:8 0
22 *334:20 *337:82 0
23 *334:20 *338:8 0
24 *334:28 *337:12 0
25 *334:34 *646:69 0.000129281
26 *334:36 *646:69 0.00161696
27 *334:42 *646:69 0.000507007
28 *334:42 *646:71 0.00136554
29 *334:61 *3039:A1 0
30 *334:61 *3281:CLK 0
31 *334:61 *605:83 4.77425e-05
32 *334:61 *605:89 0.000337289
33 *334:61 *653:22 0.000343847
34 *283:34 *334:28 0
35 *283:34 *334:34 0
36 *291:257 *334:20 0
37 *291:259 *334:20 0
38 *291:264 *334:20 0
39 *302:10 *334:28 0
40 *315:10 *334:20 0
41 *329:10 *334:55 0.00113988
42 *330:8 *334:28 0.000235556
43 *330:12 *334:28 0.00124883
44 *330:12 *334:34 0.00289657
45 *330:16 *334:36 0.00429669
46 *330:16 *334:42 0.00183597
47 *331:6 *334:20 0.00114934
48 *333:6 *334:20 0
49 *333:14 *334:55 0.000212958
50 *333:16 *334:55 0.000929025
*RES
1 *3417:X *334:8 21.9673 
2 *334:8 *334:20 36.4297 
3 *334:20 *334:28 34.5848 
4 *334:28 *334:34 33.7711 
5 *334:34 *334:36 19.879 
6 *334:36 *334:42 29.4195 
7 *334:42 *3204:CLK 20.3193 
8 *334:42 *334:55 45.2942 
9 *334:55 *334:61 25.0573 
10 *334:61 *3223:CLK 48.5078 
11 *334:61 *3205:CLK 40 
12 *334:55 *3201:CLK 21.6171 
13 *334:36 *3203:CLK 40.5356 
14 *334:8 *3448:A 20 
*END

*D_NET *335 0.0324619
*CONN
*I *3273:CLK I *D sg13g2_dfrbpq_1
*I *3276:CLK I *D sg13g2_dfrbpq_1
*I *3252:CLK I *D sg13g2_dfrbpq_1
*I *3263:CLK I *D sg13g2_dfrbpq_1
*I *3274:CLK I *D sg13g2_dfrbpq_1
*I *3260:CLK I *D sg13g2_dfrbpq_1
*I *3418:X O *D sg13g2_buf_16
*CAP
1 *3273:CLK 0
2 *3276:CLK 0
3 *3252:CLK 0
4 *3263:CLK 3.4601e-05
5 *3274:CLK 0
6 *3260:CLK 0.000309636
7 *3418:X 5.17111e-05
8 *335:63 0.000834725
9 *335:46 0.00129813
10 *335:44 0.00245354
11 *335:35 0.0029698
12 *335:25 0.00159351
13 *335:21 0.00156489
14 *335:12 0.00249042
15 *335:8 0.00131606
16 *3260:CLK *467:16 0
17 *335:8 *607:45 0
18 *335:12 *3251:RESET_B 0
19 *335:12 *444:14 0.00163361
20 *335:12 *643:27 0
21 *335:21 *336:31 0.000662923
22 *335:21 *454:32 0
23 *335:21 *467:16 0
24 *335:25 *3096:A0 0
25 *335:25 *3261:CLK 0.000598622
26 *335:25 *336:31 0
27 *335:25 *454:32 0
28 *335:25 *455:25 0
29 *335:35 *3097:A0 0.00059848
30 *335:35 *3261:CLK 0
31 *335:35 *3277:CLK 4.78853e-05
32 *335:35 *336:42 0
33 *335:35 *336:49 0
34 *335:35 *455:25 0
35 *335:44 *3097:A0 0
36 *335:44 *3097:A1 0.000144913
37 *335:44 *336:49 0.000597361
38 *335:44 *336:58 0.00288268
39 *335:44 *604:14 0
40 *335:46 *341:38 0.00199323
41 *335:46 *605:52 0.00215283
42 *335:63 *341:38 0.0031187
43 *335:63 *605:52 0.00309826
44 *3418:A *335:12 0
45 *183:10 *3260:CLK 1.54008e-05
46 *184:10 *335:25 0
*RES
1 *3418:X *335:8 40.5356 
2 *335:8 *335:12 36.171 
3 *335:12 *3260:CLK 23.3475 
4 *335:12 *335:21 10.2691 
5 *335:21 *335:25 6.5096 
6 *335:25 *335:35 9.2906 
7 *335:35 *3274:CLK 20 
8 *335:35 *335:44 43.2471 
9 *335:44 *335:46 9.991 
10 *335:46 *3263:CLK 40.3193 
11 *335:46 *335:63 36.8405 
12 *335:63 *3252:CLK 20 
13 *335:25 *3276:CLK 20 
14 *335:21 *3273:CLK 20 
*END

*D_NET *336 0.0278012
*CONN
*I *3265:CLK I *D sg13g2_dfrbpq_1
*I *3253:CLK I *D sg13g2_dfrbpq_1
*I *3262:CLK I *D sg13g2_dfrbpq_1
*I *3275:CLK I *D sg13g2_dfrbpq_1
*I *3277:CLK I *D sg13g2_dfrbpq_1
*I *3449:A I *D sg13g2_inv_1
*I *3419:X O *D sg13g2_buf_16
*CAP
1 *3265:CLK 0.000336588
2 *3253:CLK 0
3 *3262:CLK 0
4 *3275:CLK 0
5 *3277:CLK 7.70997e-05
6 *3449:A 0
7 *3419:X 4.79433e-05
8 *336:60 0.00312665
9 *336:58 0.00495479
10 *336:49 0.00279052
11 *336:42 0.0010698
12 *336:31 0.00167762
13 *336:25 0.00282068
14 *336:16 0.000330381
15 *336:6 0.00204249
16 *3265:CLK *3101:A0 0
17 *3265:CLK *3254:RESET_B 0.000215107
18 *3265:CLK *460:8 0
19 *3277:CLK *3261:CLK 1.54008e-05
20 *336:6 *341:6 0
21 *336:16 *341:6 0
22 *336:31 *3261:CLK 0.000857606
23 *336:31 *341:36 8.02269e-05
24 *336:42 *341:36 0
25 *336:49 *341:36 0
26 *336:58 *341:36 0
27 *336:58 *604:14 0
28 *336:60 *3098:A1 0
29 *336:60 *3100:A1 0
30 *336:60 *3254:RESET_B 0.000395311
31 *336:60 *3627:trim[12] 0.00108606
32 *336:60 *457:23 0
33 *336:60 *645:87 0.00130192
34 *336:60 *645:98 0.00012816
35 *336:60 *646:138 0
36 *185:10 *336:49 0.000240634
37 *185:10 *336:58 1.54008e-05
38 *291:186 *336:16 0
39 *332:20 *336:6 0
40 *332:20 *336:16 0
41 *335:21 *336:31 0.000662923
42 *335:25 *336:31 0
43 *335:35 *3277:CLK 4.78853e-05
44 *335:35 *336:42 0
45 *335:35 *336:49 0
46 *335:44 *336:49 0.000597361
47 *335:44 *336:58 0.00288268
*RES
1 *3419:X *336:6 20.5356 
2 *336:6 *336:16 43.3372 
3 *336:16 *3449:A 20 
4 *336:6 *336:25 40.6206 
5 *336:25 *336:31 32.9986 
6 *336:31 *3277:CLK 20.8858 
7 *336:31 *336:42 3.5638 
8 *336:42 *3275:CLK 20 
9 *336:42 *336:49 6.1594 
10 *336:49 *3262:CLK 20 
11 *336:49 *336:58 41.3004 
12 *336:58 *336:60 32.9806 
13 *336:60 *3253:CLK 40 
14 *336:60 *3265:CLK 43.9552 
*END

*D_NET *337 0.0362055
*CONN
*I *3259:CLK I *D sg13g2_dfrbpq_1
*I *3202:CLK I *D sg13g2_dfrbpq_1
*I *3281:CLK I *D sg13g2_dfrbpq_1
*I *3283:CLK I *D sg13g2_dfrbpq_1
*I *3282:CLK I *D sg13g2_dfrbpq_1
*I *3220:CLK I *D sg13g2_dfrbpq_1
*I *3420:X O *D sg13g2_buf_16
*CAP
1 *3259:CLK 0
2 *3202:CLK 0
3 *3281:CLK 0.000774813
4 *3283:CLK 4.72978e-05
5 *3282:CLK 0.00028563
6 *3220:CLK 0
7 *3420:X 0.00176443
8 *337:88 0.00248396
9 *337:82 0.00310788
10 *337:39 0.000955657
11 *337:30 0.00143035
12 *337:24 0.00295533
13 *337:22 0.00250823
14 *337:16 0.000860188
15 *337:12 0.00358806
16 *337:10 0.00355904
17 *337:8 0.00114051
18 *3281:CLK *3281:RESET_B 0
19 *3281:CLK *394:12 0
20 *3281:CLK *476:25 0
21 *3281:CLK *477:10 0
22 *3281:CLK *605:89 0
23 *3281:CLK *646:83 0
24 *3281:CLK *653:14 0
25 *3282:CLK *635:66 0
26 *337:12 *599:75 0
27 *337:12 *605:75 0
28 *337:12 *646:57 0.000555039
29 *337:22 *392:10 0
30 *337:22 *413:39 0
31 *337:24 *392:10 0
32 *337:24 *392:14 0
33 *337:24 *413:39 0
34 *337:24 *653:22 0
35 *337:30 *410:23 0
36 *337:30 *412:8 0.00018211
37 *337:30 *412:18 0.000128576
38 *337:30 *597:8 0.000499695
39 *337:30 *635:66 0
40 *337:30 *635:73 0
41 *337:30 *653:22 0
42 *337:39 *3036:S 0.000369859
43 *337:39 *3626:SEL 0
44 *337:39 *478:12 0
45 *337:39 *637:76 0
46 *337:39 *656:8 0
47 *337:82 *338:8 0
48 *337:88 *3106:S 0
49 *337:88 *3509:A 0
50 *337:88 *3627:reset 0
51 *337:88 *340:10 0
52 *337:88 *643:54 0
53 *3205:D *337:39 0.000305318
54 *3283:D *3282:CLK 0
55 *3399:A *337:8 0
56 *3409:A *337:12 0
57 *3412:A *337:12 0.000556237
58 *126:8 *337:12 0
59 *291:194 *337:88 0
60 *291:210 *337:88 0
61 *291:257 *337:8 0
62 *291:259 *337:8 0
63 *291:264 *337:8 0
64 *291:279 *337:8 0
65 *302:10 *337:12 0.000106064
66 *306:8 *337:88 0
67 *307:10 *337:88 0
68 *316:8 *337:12 0
69 *326:10 *337:12 0.00804125
70 *329:10 *337:30 0
71 *331:6 *337:8 0
72 *333:6 *337:82 0
73 *333:61 *337:82 0
74 *334:20 *337:8 0
75 *334:20 *337:82 0
76 *334:28 *337:12 0
77 *334:61 *3281:CLK 0
*RES
1 *3420:X *337:8 31.7317 
2 *337:8 *337:10 20 
3 *337:10 *337:12 52.5094 
4 *337:12 *337:16 20.3193 
5 *337:16 *337:22 28.1473 
6 *337:22 *337:24 8.2606 
7 *337:24 *337:30 34.3273 
8 *337:30 *3220:CLK 20 
9 *337:24 *337:39 26.2877 
10 *337:39 *3282:CLK 23.3578 
11 *337:39 *3283:CLK 20.5974 
12 *337:22 *3281:CLK 47.5705 
13 *337:16 *3202:CLK 20 
14 *3420:X *337:82 45.7268 
15 *337:82 *337:88 49.7773 
16 *337:88 *3259:CLK 20 
*END

*D_NET *338 0.0222971
*CONN
*I *3270:CLK I *D sg13g2_dfrbpq_1
*I *3257:CLK I *D sg13g2_dfrbpq_1
*I *3258:CLK I *D sg13g2_dfrbpq_1
*I *3271:CLK I *D sg13g2_dfrbpq_1
*I *3279:CLK I *D sg13g2_dfrbpq_1
*I *3450:A I *D sg13g2_inv_1
*I *3421:X O *D sg13g2_buf_16
*CAP
1 *3270:CLK 0
2 *3257:CLK 0
3 *3258:CLK 0.000190974
4 *3271:CLK 0
5 *3279:CLK 0
6 *3450:A 0
7 *3421:X 0.000613969
8 *338:66 0.000851177
9 *338:56 0.00104597
10 *338:43 0.000755967
11 *338:34 0.00182222
12 *338:27 0.00226368
13 *338:19 0.0049409
14 *338:8 0.00183916
15 *3258:CLK *464:24 0.000305482
16 *338:27 *3114:A0 0
17 *338:27 *3251:RESET_B 4.77699e-05
18 *338:27 *3547:A 0.00173342
19 *338:27 *475:14 0
20 *338:27 *475:25 0
21 *338:27 *643:8 0
22 *338:34 *3095:A0 0.000553998
23 *338:34 *3627:trim[8] 0.000800045
24 *338:34 *453:10 0.00160009
25 *338:34 *466:18 0
26 *338:34 *602:42 0
27 *338:34 *643:54 0
28 *338:34 *643:68 0
29 *338:34 *643:83 0
30 *338:43 *3627:trim[8] 0.000342951
31 *338:43 *643:83 0
32 *338:56 *464:24 0.000607524
33 *338:66 *3627:trim[6] 0
34 *338:66 *3627:trim[7] 0
35 *338:66 *450:30 0
36 *338:66 *464:24 0.00124806
37 *338:66 *465:8 0.000395897
38 *338:66 *643:83 0
39 *3251:D *338:27 0
40 *3251:CLK *338:27 0
41 *3270:D *3258:CLK 0.000337824
42 *202:10 *338:27 0
43 *291:194 *338:19 0
44 *291:210 *338:19 0
45 *307:10 *338:19 0
46 *307:10 *338:34 0
47 *333:61 *338:8 0
48 *333:61 *338:19 0
49 *334:8 *338:8 0
50 *334:20 *338:8 0
51 *337:82 *338:8 0
*RES
1 *3421:X *338:8 26.1388 
2 *338:8 *3450:A 20 
3 *338:8 *338:19 34.729 
4 *338:19 *338:27 45.647 
5 *338:27 *3279:CLK 20 
6 *338:19 *338:34 21.115 
7 *338:34 *3271:CLK 40 
8 *338:34 *338:43 4.7998 
9 *338:43 *3258:CLK 42.266 
10 *338:43 *338:56 23.0694 
11 *338:56 *338:66 49.888 
12 *338:66 *3257:CLK 20 
13 *338:56 *3270:CLK 20 
*END

*D_NET *339 0.0498747
*CONN
*I *3232:CLK I *D sg13g2_dfrbpq_1
*I *3297:CLK I *D sg13g2_dfrbpq_1
*I *3310:CLK I *D sg13g2_dfrbpq_1
*I *3308:CLK I *D sg13g2_dfrbpq_1
*I *3318:CLK I *D sg13g2_dfrbpq_1
*I *3304:CLK I *D sg13g2_dfrbpq_1
*I *3422:X O *D sg13g2_buf_16
*CAP
1 *3232:CLK 5.85666e-05
2 *3297:CLK 0
3 *3310:CLK 0
4 *3308:CLK 0
5 *3318:CLK 0
6 *3304:CLK 0.000634541
7 *3422:X 0.00035887
8 *339:50 0.00126363
9 *339:46 0.0020634
10 *339:40 0.00163422
11 *339:34 0.00116939
12 *339:16 0.00124319
13 *339:14 0.000885011
14 *339:12 0.00679451
15 *339:10 0.00679451
16 *339:8 0.00035887
17 *3232:CLK *439:18 0.00034245
18 *3232:CLK *590:40 0.000320354
19 *3304:CLK *568:16 0
20 *3304:CLK *612:14 0.000210386
21 *3304:CLK *612:16 0.000267843
22 *3304:CLK *612:18 0.00115732
23 *3304:CLK *612:20 2.21831e-05
24 *339:8 *346:50 0.00199529
25 *339:12 *385:52 7.81165e-05
26 *339:12 *527:22 0.000300663
27 *339:12 *623:26 0
28 *339:12 *628:22 0.000524079
29 *339:12 *641:34 0
30 *339:16 *439:18 0.000386297
31 *339:16 *568:16 0
32 *339:16 *590:40 0.000284051
33 *339:16 *612:12 0.000309219
34 *339:16 *612:14 0.000494966
35 *339:34 *439:18 0.00151485
36 *339:34 *590:40 0.00149142
37 *339:40 *3232:RESET_B 0
38 *339:40 *354:18 0.000820946
39 *339:40 *354:33 4.77425e-05
40 *339:40 *551:10 0
41 *339:40 *641:79 0
42 *339:46 *3339:RESET_B 1.54008e-05
43 *339:46 *384:26 0
44 *339:46 *577:14 0
45 *339:46 *613:61 0.00050146
46 *339:50 *382:12 0.000666092
47 *339:50 *553:10 0
48 *339:50 *576:24 0
49 *339:50 *577:14 0
50 *339:50 *611:98 0
51 *339:50 *613:30 0
52 uo_out[5] *3304:CLK 0.000441641
53 *3339:CLK *339:46 0
54 *35:12 *339:16 0
55 *37:12 *339:16 0.00121945
56 *43:8 *339:46 0
57 *44:8 *339:46 0
58 *44:12 *339:46 0
59 *44:12 *339:50 0
60 *105:14 *339:8 0.00200969
61 *239:30 *339:16 0
62 *245:62 *339:16 0.00028389
63 *259:12 *339:12 0
64 *259:47 *339:12 0
65 *262:16 *339:12 0.000307886
66 *328:20 *339:12 0.010265
67 *328:32 *339:12 0.000337321
*RES
1 *3422:X *339:8 49.2494 
2 *339:8 *339:10 20 
3 *339:10 *339:12 81.2155 
4 *339:12 *339:14 20 
5 *339:14 *339:16 8.755 
6 *339:16 *3304:CLK 47.7662 
7 *339:16 *3318:CLK 40 
8 *339:14 *339:34 7.0246 
9 *339:34 *339:40 28.24 
10 *339:40 *339:46 28.3018 
11 *339:46 *339:50 33.9462 
12 *339:50 *3308:CLK 20 
13 *339:46 *3310:CLK 40 
14 *339:40 *3297:CLK 20 
15 *339:34 *3232:CLK 41.5862 
*END

*D_NET *340 0.0141581
*CONN
*I *3267:CLK I *D sg13g2_dfrbpq_1
*I *3255:CLK I *D sg13g2_dfrbpq_1
*I *3256:CLK I *D sg13g2_dfrbpq_1
*I *3268:CLK I *D sg13g2_dfrbpq_1
*I *3269:CLK I *D sg13g2_dfrbpq_1
*I *3423:X O *D sg13g2_buf_16
*CAP
1 *3267:CLK 0.000100783
2 *3255:CLK 0.000255101
3 *3256:CLK 5.07794e-05
4 *3268:CLK 0.000135359
5 *3269:CLK 5.63519e-05
6 *3423:X 5.80404e-05
7 *340:43 0.000769673
8 *340:32 0.000634102
9 *340:21 0.000669732
10 *340:10 0.00262686
11 *340:8 0.00226371
12 *3255:CLK *3255:RESET_B 0
13 *3255:CLK *3267:RESET_B 0
14 *3256:CLK *463:10 8.01118e-05
15 *3267:CLK *461:39 0
16 *3267:CLK *462:10 0
17 *3268:CLK *3268:RESET_B 0
18 *3269:CLK *601:54 0
19 *340:10 *3106:A0 0.00194378
20 *340:10 *465:16 0.000800546
21 *340:10 *466:18 0
22 *340:10 *601:10 0
23 *340:10 *601:25 0
24 *340:10 *601:33 0
25 *340:10 *602:65 0
26 *340:10 *642:53 0.000820481
27 *340:21 *642:53 0.000821726
28 *340:21 *642:64 0.000480615
29 *340:32 *642:64 0.000128742
30 *340:32 *642:75 0.000481818
31 *340:43 *3267:RESET_B 0.000160341
32 *340:43 *461:39 0
33 *340:43 *462:10 0
34 *340:43 *642:75 0.000819438
35 *307:10 *340:10 0
36 *337:88 *340:10 0
*RES
1 *3423:X *340:8 40.5356 
2 *340:8 *340:10 30.0142 
3 *340:10 *3269:CLK 40.166 
4 *340:10 *340:21 6.0358 
5 *340:21 *3268:CLK 41.4008 
6 *340:21 *340:32 2.8222 
7 *340:32 *3256:CLK 40.5356 
8 *340:32 *340:43 6.0358 
9 *340:43 *3255:CLK 42.6986 
10 *340:43 *3267:CLK 41.3802 
*END

*D_NET *341 0.0367755
*CONN
*I *3266:CLK I *D sg13g2_dfrbpq_1
*I *3254:CLK I *D sg13g2_dfrbpq_1
*I *3264:CLK I *D sg13g2_dfrbpq_1
*I *3261:CLK I *D sg13g2_dfrbpq_1
*I *3278:CLK I *D sg13g2_dfrbpq_1
*I *3424:X O *D sg13g2_buf_16
*CAP
1 *3266:CLK 0.000215183
2 *3254:CLK 0
3 *3264:CLK 0
4 *3261:CLK 0.000474737
5 *3278:CLK 0
6 *3424:X 0.00232268
7 *341:47 0.00126976
8 *341:38 0.00198891
9 *341:36 0.00407428
10 *341:32 0.00320182
11 *341:19 0.00127887
12 *341:10 0.00177128
13 *341:6 0.0033517
14 *3266:CLK *3266:RESET_B 0
15 *3266:CLK *446:27 0.000160341
16 *341:10 *473:20 0
17 *341:10 *474:16 0
18 *341:19 *3109:A0 0
19 *341:19 *3627:sel[3] 0
20 *341:19 *473:8 0
21 *341:19 *474:16 0
22 *341:32 *473:8 0
23 *341:36 *3627:sel[2] 0
24 *341:36 *456:8 0
25 *341:36 *456:38 0
26 *341:36 *469:8 0
27 *341:36 *607:60 0
28 *341:38 *605:52 0
29 *341:47 *3089:A0 0.00012816
30 *341:47 *446:27 0.000982833
31 *341:47 *604:77 0
32 *341:47 *605:52 0
33 *3277:CLK *3261:CLK 1.54008e-05
34 *185:10 *341:36 0.000240634
35 *189:8 *341:47 0
36 *298:116 *3266:CLK 0.000182109
37 *298:116 *341:38 0.00514162
38 *298:116 *341:47 0.00332678
39 *305:8 *341:6 0
40 *332:20 *341:6 0
41 *335:25 *3261:CLK 0.000598622
42 *335:35 *3261:CLK 0
43 *335:46 *341:38 0.00199323
44 *335:63 *341:38 0.0031187
45 *336:6 *341:6 0
46 *336:16 *341:6 0
47 *336:31 *3261:CLK 0.000857606
48 *336:31 *341:36 8.02269e-05
49 *336:42 *341:36 0
50 *336:49 *341:36 0
51 *336:58 *341:36 0
*RES
1 *3424:X *341:6 44.7612 
2 *341:6 *341:10 32.7102 
3 *341:10 *3278:CLK 40 
4 *341:10 *341:19 7.0246 
5 *341:19 *3261:CLK 45.7268 
6 *341:19 *341:32 20.5974 
7 *341:32 *341:36 49.5198 
8 *341:36 *341:38 23.8342 
9 *341:38 *3264:CLK 40 
10 *341:38 *341:47 15.4294 
11 *341:47 *3254:CLK 40 
12 *341:47 *3266:CLK 42.678 
*END

*D_NET *342 0.0371182
*CONN
*I *3321:CLK I *D sg13g2_dfrbpq_1
*I *3306:CLK I *D sg13g2_dfrbpq_1
*I *3309:CLK I *D sg13g2_dfrbpq_1
*I *3233:CLK I *D sg13g2_dfrbpq_1
*I *3247:CLK I *D sg13g2_dfrbpq_1
*I *3458:A I *D sg13g2_inv_1
*I *3425:X O *D sg13g2_buf_16
*CAP
1 *3321:CLK 0.000226462
2 *3306:CLK 0.000377789
3 *3309:CLK 0.00207019
4 *3233:CLK 3.02124e-05
5 *3247:CLK 0
6 *3458:A 0
7 *3425:X 0
8 *342:94 0.00131495
9 *342:50 0.00243218
10 *342:48 0.00131692
11 *342:39 0.00180299
12 *342:35 0.00436759
13 *342:18 9.42199e-05
14 *342:12 0.00223807
15 *342:6 0.00498288
16 *3309:CLK *3495:A 0.000112426
17 *3309:CLK *3519:A 8.00842e-05
18 *3309:CLK *3603:A 0.000143936
19 *3309:CLK *553:10 0.000208178
20 *3309:CLK *575:14 0.00017734
21 *3309:CLK *576:16 0.000206049
22 *3309:CLK *582:39 4.77425e-05
23 *3309:CLK *582:45 0.000240492
24 *3309:CLK *586:12 4.77699e-05
25 *3309:CLK *586:20 0.00014391
26 *3309:CLK *586:102 6.46834e-05
27 *3309:CLK *588:38 0.000209499
28 *3309:CLK *612:12 0.000111114
29 *3309:CLK *618:18 0.000144052
30 *3309:CLK *685:10 0
31 *342:12 *348:28 0
32 *342:12 *348:55 0
33 *342:12 *519:22 8.00842e-05
34 *342:12 *519:30 0.000791992
35 *342:12 *533:48 0
36 *342:12 *545:10 0
37 *342:12 *583:66 0
38 *342:12 *610:24 0
39 *342:12 *623:60 0
40 *342:12 *623:100 0.000727922
41 *342:12 *623:106 0.000176236
42 *342:12 *649:16 0
43 *342:12 *670:8 0
44 *342:12 *679:63 0.000791759
45 *342:12 *688:8 0
46 *342:12 *700:14 0.00043624
47 *342:35 *3239:CLK 8.00842e-05
48 *342:35 *3250:CLK 0
49 *342:35 *3359:CLK 8.00842e-05
50 *342:35 *3558:A 0
51 *342:35 *345:18 0
52 *342:35 *345:26 0
53 *342:35 *346:18 0
54 *342:35 *346:20 0
55 *342:35 *347:18 0.000274527
56 *342:35 *348:55 0.000112198
57 *342:35 *688:8 0
58 *342:39 *3085:A0 0.000209499
59 *342:39 *3235:CLK 0.000597603
60 *342:39 *442:14 0
61 *342:39 *588:38 0
62 *342:39 *588:65 0
63 *342:48 *588:38 0.000403894
64 *342:50 *588:38 0.000532663
65 *342:94 *440:18 0
66 uio_out[1] *3306:CLK 7.48842e-05
67 uio_out[1] *342:94 0
68 *3174:CLK *342:35 0
69 *3441:A *342:35 0.000857836
70 *31:20 *342:35 7.92265e-05
71 *31:28 *342:35 0.000985643
72 *39:34 *3306:CLK 0.000176248
73 *52:12 *342:35 0
74 *52:18 *342:35 0.000274297
75 *53:8 *342:12 0.000339353
76 *63:8 *3309:CLK 0
77 *239:30 *3309:CLK 0
78 *246:28 *342:12 0.000916996
79 *248:26 *342:12 0.000177497
80 *274:12 *342:12 0
81 *274:12 *342:35 0
82 *277:20 *342:12 0
83 *294:10 *3306:CLK 5.15366e-05
84 *294:10 *342:94 0.00118003
85 *294:20 *3306:CLK 0.000338907
86 *294:63 *3321:CLK 0.000369595
87 *300:85 *3321:CLK 0.000401937
88 *317:16 *3309:CLK 0
89 *317:16 *342:35 0
90 *317:16 *342:39 0.00240766
91 *317:16 *342:48 0
92 *317:16 *342:50 0
*RES
1 *3425:X *342:6 40 
2 *342:6 *342:12 43.2574 
3 *342:12 *342:18 40.5974 
4 *342:18 *3458:A 20 
5 *342:6 *342:35 47.398 
6 *342:35 *342:39 16.4594 
7 *342:39 *3247:CLK 20 
8 *342:39 *342:48 3.0488 
9 *342:48 *342:50 3.5638 
10 *342:50 *3233:CLK 20.3502 
11 *342:50 *3309:CLK 40.0335 
12 *342:48 *342:94 27.2718 
13 *342:94 *3306:CLK 43.9346 
14 *342:94 *3321:CLK 42.6986 
*END

*D_NET *343 0.0499584
*CONN
*I *3248:CLK I *D sg13g2_dfrbpq_1
*I *3335:CLK I *D sg13g2_dfrbpq_1
*I *3332:CLK I *D sg13g2_dfrbpq_1
*I *3323:CLK I *D sg13g2_dfrbpq_1
*I *3322:CLK I *D sg13g2_dfrbpq_1
*I *3336:CLK I *D sg13g2_dfrbpq_1
*I *3426:X O *D sg13g2_buf_16
*CAP
1 *3248:CLK 0
2 *3335:CLK 0
3 *3332:CLK 0
4 *3323:CLK 0.000299271
5 *3322:CLK 0
6 *3336:CLK 0.000350292
7 *3426:X 0.000236079
8 *343:89 0.000214783
9 *343:52 0.00043251
10 *343:50 0.00106858
11 *343:42 0.00134647
12 *343:36 0.00120392
13 *343:28 0.00180097
14 *343:22 0.00104164
15 *343:20 0.00498413
16 *343:18 0.00578485
17 *343:14 0.00119382
18 *343:8 0.000629177
19 *3323:CLK *511:30 0.00154159
20 *3336:CLK *511:30 0.000234811
21 *3336:CLK *585:42 0
22 *3336:CLK *611:23 0
23 *343:8 *630:92 0.000127508
24 *343:8 *704:58 0.000771868
25 *343:14 *344:12 0
26 *343:20 *344:24 0.00666387
27 *343:20 *346:10 0
28 *343:20 *416:37 0
29 *343:20 *436:30 0
30 *343:20 *562:63 0
31 *343:20 *580:32 0.000899484
32 *343:20 *698:14 0
33 *343:20 *699:35 0
34 *343:28 *427:32 0
35 *343:28 *583:101 0.000500409
36 *343:28 *590:16 0
37 *343:28 *616:20 0.00116328
38 *343:28 *616:45 0.000813876
39 *343:36 *3332:RESET_B 4.77425e-05
40 *343:36 *583:101 0.000467611
41 *343:36 *614:18 7.30101e-05
42 *343:36 *614:33 0.000289659
43 *343:36 *616:20 0.000208254
44 *343:42 *3318:RESET_B 4.77425e-05
45 *343:42 *3332:RESET_B 0.000434528
46 *343:50 *2980:S 0
47 *343:50 *3332:RESET_B 0
48 *343:50 *579:64 0
49 *343:52 *511:30 0.000425637
50 *343:89 *579:64 7.99388e-05
51 *343:89 *585:14 0
52 uio_out[5] *343:28 0.00128445
53 uo_out[4] *343:89 0
54 *2950:A *343:36 0.000433011
55 *3158:A *3336:CLK 0.000234811
56 *3158:A *343:52 0.00012874
57 *3591:A *343:42 4.77425e-05
58 *15:19 *343:20 0
59 *15:21 *343:18 0.00440559
60 *17:13 *343:18 0.0044054
61 *33:8 *343:89 0.000447134
62 *39:18 *3336:CLK 0
63 *157:10 *343:28 0.00024154
64 *240:22 *343:20 0
65 *247:52 *343:20 0
66 *256:30 *343:20 0.000142716
67 *262:26 *343:14 0
68 *272:12 *343:20 0
69 *279:20 *343:36 0
70 *291:73 *343:8 0
71 *300:119 *3323:CLK 0.00156258
72 *300:119 *343:52 0.000319223
73 *317:22 *343:36 0.000124547
74 *317:43 *343:50 0.000530266
75 *317:51 *343:50 0.000273394
*RES
1 *3426:X *343:8 43.5638 
2 *343:8 *343:14 43.1312 
3 *343:14 *343:18 40.3734 
4 *343:18 *343:20 56.9899 
5 *343:20 *343:22 20 
6 *343:22 *343:28 33.9256 
7 *343:28 *343:36 48.0546 
8 *343:36 *343:42 4.4496 
9 *343:42 *343:50 26.8598 
10 *343:50 *343:52 2.0806 
11 *343:52 *3336:CLK 43.6552 
12 *343:52 *3322:CLK 40 
13 *343:50 *3323:CLK 47.2718 
14 *343:42 *343:89 42.6162 
15 *343:89 *3332:CLK 20 
16 *343:28 *3335:CLK 20 
17 *343:22 *3248:CLK 40 
*END

*D_NET *344 0.0393478
*CONN
*I *3459:A I *D sg13g2_inv_1
*I *3319:CLK I *D sg13g2_dfrbpq_1
*I *3333:CLK I *D sg13g2_dfrbpq_1
*I *3294:CLK I *D sg13g2_dfrbpq_1
*I *3305:CLK I *D sg13g2_dfrbpq_1
*I *3234:CLK I *D sg13g2_dfrbpq_1
*I *3427:X O *D sg13g2_buf_16
*CAP
1 *3459:A 0
2 *3319:CLK 0.00047175
3 *3333:CLK 0
4 *3294:CLK 0
5 *3305:CLK 0
6 *3234:CLK 0
7 *3427:X 0.000588745
8 *344:91 0.00162693
9 *344:69 0.000548743
10 *344:55 0.000440823
11 *344:47 0.000825951
12 *344:41 0.0013447
13 *344:32 0.000187028
14 *344:24 0.00518659
15 *344:22 0.00411699
16 *344:20 0.00214583
17 *344:12 0.00398031
18 *344:8 0.00405016
19 *3319:CLK *618:55 0
20 *344:8 *630:92 0.000239996
21 *344:8 *702:44 0
22 *344:12 *414:32 0
23 *344:24 *431:31 0
24 *344:24 *431:42 0
25 *344:32 *3084:A1 0
26 *344:32 *580:32 0
27 *344:41 *427:32 0.000388317
28 *344:41 *496:23 0
29 *344:47 *366:8 0
30 *344:47 *496:23 0
31 *344:47 *582:135 0.0001773
32 *344:55 *364:22 0
33 *344:55 *366:8 0
34 *344:55 *366:27 0
35 *344:55 *615:54 0.000284379
36 *344:69 *618:55 0
37 *344:91 *352:16 0.00127797
38 *344:91 *352:22 0.00297476
39 *344:91 *583:195 0.000231428
40 *344:91 *591:27 0
41 *344:91 *627:28 0
42 uio_out[5] *344:41 0
43 uio_out[5] *344:47 0
44 uio_out[5] *344:55 0
45 *12:13 *344:24 0
46 *12:13 *344:32 0
47 *18:11 *344:20 0
48 *19:11 *344:20 0
49 *66:22 *344:47 0.000176599
50 *167:8 *344:91 0.00023041
51 *217:12 *344:55 0
52 *236:20 *344:91 0.000342275
53 *241:20 *344:20 0
54 *247:24 *344:91 0
55 *247:52 *344:24 0
56 *260:47 *344:8 7.9225e-05
57 *294:63 *3319:CLK 0.000594137
58 *300:69 *344:41 0.000125053
59 *300:77 *344:69 4.75166e-05
60 *343:14 *344:12 0
61 *343:20 *344:24 0.00666387
*RES
1 *3427:X *344:8 45.2942 
2 *344:8 *344:12 34.5951 
3 *344:12 *344:20 41.7845 
4 *344:20 *344:22 20 
5 *344:22 *344:24 44.6608 
6 *344:24 *344:32 41.5347 
7 *344:32 *3234:CLK 20 
8 *344:24 *344:41 27.2718 
9 *344:41 *344:47 23.5123 
10 *344:47 *344:55 44.0994 
11 *344:55 *3305:CLK 20 
12 *344:47 *3294:CLK 20 
13 *344:41 *344:69 20.7519 
14 *344:69 *3333:CLK 20 
15 *344:69 *3319:CLK 24.944 
16 *344:8 *344:91 40.1983 
17 *344:91 *3459:A 20 
*END

*D_NET *345 0.0341507
*CONN
*I *3364:CLK I *D sg13g2_dfrbpq_1
*I *3320:CLK I *D sg13g2_dfrbpq_1
*I *3334:CLK I *D sg13g2_dfrbpq_1
*I *3293:CLK I *D sg13g2_dfrbpq_1
*I *3249:CLK I *D sg13g2_dfrbpq_1
*I *3235:CLK I *D sg13g2_dfrbpq_1
*I *3428:X O *D sg13g2_buf_16
*CAP
1 *3364:CLK 0
2 *3320:CLK 0
3 *3334:CLK 0
4 *3293:CLK 0
5 *3249:CLK 0
6 *3235:CLK 0.000327262
7 *3428:X 0.000338157
8 *345:87 0.000944702
9 *345:62 0.000789245
10 *345:48 0.00104181
11 *345:46 0.000308165
12 *345:44 0.0010003
13 *345:42 0.0012674
14 *345:26 0.00122209
15 *345:18 0.00631347
16 *345:12 0.00604017
17 *345:8 0.00222708
18 *3235:CLK *442:14 0.00053269
19 *3235:CLK *588:65 0
20 *345:12 *356:14 0
21 *345:12 *356:20 0.00271852
22 *345:12 *356:33 0
23 *345:18 *3558:A 0.000533008
24 *345:18 *3628:ext_trim[13] 0
25 *345:18 *3628:ext_trim[14] 0
26 *345:18 *347:10 0
27 *345:18 *428:10 0
28 *345:18 *487:16 0
29 *345:18 *529:14 0
30 *345:18 *698:8 0.000754821
31 *345:26 *3167:B 0
32 *345:26 *442:8 0
33 *345:26 *443:10 0
34 *345:42 *3167:B 0
35 *345:42 *351:24 0
36 *345:42 *517:10 0.000234811
37 *345:42 *518:18 0
38 *345:42 *610:72 0
39 *345:48 *3155:B 0
40 *345:62 *3155:B 0
41 *345:62 *3477:A 0
42 *345:62 *495:19 0
43 *345:62 *496:17 0
44 *345:62 *609:30 0.000144216
45 *345:62 *616:72 8.00424e-05
46 *345:87 *3168:B 0
47 *345:87 *3343:RESET_B 0.000435799
48 *345:87 *348:36 4.77425e-05
49 *345:87 *348:44 7.31628e-05
50 *345:87 *349:22 0
51 uio_oe[4] *345:46 0
52 uio_oe[4] *345:48 0
53 uio_oe[4] *345:62 0.000726508
54 uio_oe[7] *345:87 0.000280657
55 *3372:A *345:18 0
56 *3372:A *345:26 0
57 *3379:A *345:18 0
58 *6:32 *345:18 0
59 *31:20 *345:18 0.00153267
60 *65:34 *345:42 0
61 *66:22 *345:87 0
62 *80:10 *345:87 0
63 *108:14 *345:12 0.0031906
64 *239:24 *345:26 0
65 *239:30 *345:26 0.000112541
66 *247:32 *345:12 0
67 *264:10 *345:12 0.000335435
68 *276:12 *345:87 0
69 *289:41 *345:18 0
70 *294:63 *345:87 0
71 *296:36 *345:18 0
72 *297:36 *345:87 0
73 *300:52 *345:62 0
74 *328:80 *345:12 0
75 *342:35 *345:18 0
76 *342:35 *345:26 0
77 *342:39 *3235:CLK 0.000597603
*RES
1 *3428:X *345:8 42.4823 
2 *345:8 *345:12 43.587 
3 *345:12 *345:18 39.9228 
4 *345:18 *345:26 47.931 
5 *345:26 *3235:CLK 23.9964 
6 *345:26 *3249:CLK 20 
7 *345:18 *345:42 30.7326 
8 *345:42 *345:44 20 
9 *345:44 *345:46 0.5356 
10 *345:46 *345:48 2.266 
11 *345:48 *345:62 48.1164 
12 *345:62 *3293:CLK 20 
13 *345:48 *3334:CLK 20 
14 *345:46 *3320:CLK 20 
15 *345:44 *345:87 48.8992 
16 *345:87 *3364:CLK 20 
*END

*D_NET *346 0.039956
*CONN
*I *3242:CLK I *D sg13g2_dfrbpq_1
*I *3460:A I *D sg13g2_inv_1
*I *3238:CLK I *D sg13g2_dfrbpq_1
*I *3237:CLK I *D sg13g2_dfrbpq_1
*I *3236:CLK I *D sg13g2_dfrbpq_1
*I *3250:CLK I *D sg13g2_dfrbpq_1
*I *3429:X O *D sg13g2_buf_16
*CAP
1 *3242:CLK 0.000567292
2 *3460:A 3.40903e-05
3 *3238:CLK 0
4 *3237:CLK 0
5 *3236:CLK 0
6 *3250:CLK 0.000505768
7 *3429:X 0
8 *346:75 0.00119148
9 *346:54 0.00105136
10 *346:50 0.00256238
11 *346:20 0.000780807
12 *346:18 0.000720451
13 *346:16 0.000785074
14 *346:10 0.00433095
15 *346:8 0.00399129
16 *346:6 0.0021693
17 *3242:CLK *583:8 0.000144913
18 *3242:CLK *592:20 0
19 *346:10 *385:64 0.00254025
20 *346:10 *417:28 4.63914e-05
21 *346:10 *417:57 0
22 *346:10 *698:14 0
23 *346:10 *699:35 4.63914e-05
24 *346:10 *706:26 0
25 *346:16 *430:27 0
26 *346:50 *641:8 0.00034162
27 *346:50 *702:44 0.000985183
28 *346:50 *702:61 0.000126146
29 *346:54 *2928:A 0
30 *346:54 *583:195 0
31 *346:54 *627:10 0
32 *346:54 *630:12 4.75166e-05
33 *346:75 *2927:A 0.000176624
34 *346:75 *583:195 0
35 *346:75 *592:20 0
36 *346:75 *701:127 0.0001122
37 uio_oe[6] *346:16 0
38 *31:28 *346:18 0.000274527
39 *105:14 *346:50 0.00329982
40 *235:28 *3242:CLK 0.000512552
41 *236:20 *346:75 0
42 *236:40 *346:10 0.000210114
43 *237:10 *346:50 0
44 *237:10 *346:54 0.0001447
45 *240:22 *346:10 0
46 *242:22 *346:10 0.000408876
47 *247:44 *346:10 0.000173655
48 *258:26 *346:50 0
49 *259:12 *346:10 0
50 *259:47 *346:10 0
51 *269:14 *346:50 0.0062839
52 *272:12 *346:10 0
53 *272:20 *346:75 0
54 *288:41 *346:75 0
55 *289:15 *346:16 0
56 *293:41 *3242:CLK 0.000917884
57 *308:16 *346:10 0.00122416
58 *308:27 *346:10 0.00125304
59 *317:16 *3250:CLK 0
60 *317:16 *346:18 0
61 *317:16 *346:20 0
62 *319:81 *346:75 0
63 *339:8 *346:50 0.00199529
64 *342:35 *3250:CLK 0
65 *342:35 *346:18 0
66 *342:35 *346:20 0
67 *343:20 *346:10 0
*RES
1 *3429:X *346:6 40 
2 *346:6 *346:8 20 
3 *346:8 *346:10 42.2815 
4 *346:10 *346:16 42.575 
5 *346:16 *346:18 3.9964 
6 *346:18 *346:20 2.266 
7 *346:20 *3250:CLK 23.9964 
8 *346:20 *3236:CLK 20 
9 *346:18 *3237:CLK 20 
10 *346:16 *3238:CLK 20 
11 *346:6 *346:50 38.9134 
12 *346:50 *346:54 23.3475 
13 *346:54 *3460:A 20.3502 
14 *346:54 *346:75 45.6753 
15 *346:75 *3242:CLK 26.3757 
*END

*D_NET *347 0.0174886
*CONN
*I *3359:CLK I *D sg13g2_dfrbpq_1
*I *3367:CLK I *D sg13g2_dfrbpq_1
*I *3312:CLK I *D sg13g2_dfrbpq_1
*I *3313:CLK I *D sg13g2_dfrbpq_1
*I *3363:CLK I *D sg13g2_dfrbpq_1
*I *3239:CLK I *D sg13g2_dfrbpq_1
*I *3430:X O *D sg13g2_buf_16
*CAP
1 *3359:CLK 4.95144e-05
2 *3367:CLK 0
3 *3312:CLK 0
4 *3313:CLK 0.000273678
5 *3363:CLK 0.000111752
6 *3239:CLK 0.000182049
7 *3430:X 0.00287769
8 *347:44 0.00111349
9 *347:31 0.001711
10 *347:29 0.00140861
11 *347:18 0.00100395
12 *347:16 0.000576839
13 *347:10 0.00323228
14 *3313:CLK *348:28 0.000339096
15 *3363:CLK *520:20 0
16 *3363:CLK *624:130 0
17 *347:10 *3184:RESET_B 0.00011101
18 *347:10 *348:84 0
19 *347:10 *629:55 0
20 *347:10 *705:16 0.000121666
21 *347:16 *672:8 0
22 *347:29 *523:20 0
23 *347:29 *624:130 0
24 *347:29 *672:8 0
25 *347:31 *520:20 0
26 *347:31 *534:12 0.000389716
27 *347:31 *624:130 0
28 *347:44 *348:28 0
29 *347:44 *348:36 0.00101564
30 *3379:A *347:10 0
31 *6:26 *347:10 0
32 *6:32 *347:10 0
33 *31:28 *3239:CLK 0.000144868
34 *52:12 *347:18 0
35 *94:10 *347:44 8.01116e-05
36 *162:12 *3239:CLK 1.54008e-05
37 *162:12 *347:29 0
38 *271:8 *347:16 0.000649043
39 *273:10 *347:10 0.000208035
40 *289:41 *347:10 0
41 *296:36 *347:10 0
42 *297:24 *3313:CLK 0
43 *297:24 *347:44 0
44 *297:26 *347:44 0
45 *301:34 *347:10 0.00143847
46 *317:10 *3239:CLK 0
47 *317:10 *347:18 0
48 *342:35 *3239:CLK 8.00842e-05
49 *342:35 *3359:CLK 8.00842e-05
50 *342:35 *347:18 0.000274527
51 *345:18 *347:10 0
*RES
1 *3430:X *347:10 49.5404 
2 *347:10 *347:16 43.811 
3 *347:16 *347:18 1.8334 
4 *347:18 *3239:CLK 21.8334 
5 *347:18 *347:29 24.7998 
6 *347:29 *347:31 6.0358 
7 *347:31 *3363:CLK 40.8446 
8 *347:31 *347:44 27.8898 
9 *347:44 *3313:CLK 23.1106 
10 *347:44 *3312:CLK 20 
11 *347:29 *3367:CLK 40 
12 *347:16 *3359:CLK 20.5356 
*END

*D_NET *348 0.0314387
*CONN
*I *3311:CLK I *D sg13g2_dfrbpq_1
*I *3225:CLK I *D sg13g2_dfrbpq_1
*I *3327:CLK I *D sg13g2_dfrbpq_1
*I *3326:CLK I *D sg13g2_dfrbpq_1
*I *3362:CLK I *D sg13g2_dfrbpq_1
*I *3461:A I *D sg13g2_inv_1
*I *3431:X O *D sg13g2_buf_16
*CAP
1 *3311:CLK 2.91729e-05
2 *3225:CLK 0
3 *3327:CLK 0
4 *3326:CLK 0
5 *3362:CLK 0
6 *3461:A 0
7 *3431:X 0.000694727
8 *348:84 0.000846152
9 *348:74 0.00148226
10 *348:55 0.000871669
11 *348:44 0.000538145
12 *348:36 0.00183176
13 *348:28 0.00279342
14 *348:20 0.00101463
15 *348:18 0.0020563
16 *348:10 0.00297148
17 *348:10 *3061:S 0
18 *348:10 *3368:RESET_B 0
19 *348:10 *3487:A 0
20 *348:10 *416:70 0
21 *348:10 *668:27 0
22 *348:18 *2944:A1 0
23 *348:18 *3173:RESET_B 0
24 *348:18 *3365:D 0.000304897
25 *348:18 *522:48 0.000499089
26 *348:18 *524:10 0
27 *348:18 *544:24 0
28 *348:18 *668:8 0
29 *348:18 *691:41 0.000257405
30 *348:18 *708:18 0.000447247
31 *348:20 *524:10 0
32 *348:20 *533:40 0
33 *348:28 *533:48 0.000173074
34 *348:36 *2943:A1 4.77425e-05
35 *348:36 *3562:A 0.000176511
36 *348:44 *606:48 8.02267e-05
37 *348:44 *610:48 7.30101e-05
38 *348:55 *533:48 0.000230928
39 *348:55 *623:60 0.000126047
40 *348:74 *416:70 0.000338887
41 *348:74 *527:26 0.00214071
42 *348:74 *592:39 0.00240551
43 *348:74 *708:18 0.000689035
44 *348:84 *629:55 0.000547934
45 *348:84 *666:39 4.76973e-05
46 *348:84 *708:18 0.000653998
47 uio_oe[7] *348:44 0
48 *2943:S *348:18 0
49 *2943:S *348:20 0.000402753
50 *2943:S *348:28 0
51 *2944:S *348:18 0
52 *2948:A *348:44 8.00842e-05
53 *3174:CLK *348:55 0.000112198
54 *3313:CLK *348:28 0.000339096
55 *68:19 *348:36 0
56 *69:15 *348:10 0
57 *70:16 *348:55 0.000227899
58 *75:22 *348:18 0.000144542
59 *96:10 *348:18 0.000208738
60 *98:10 *348:36 0
61 *99:10 *348:18 0
62 *148:8 *348:18 0.000112426
63 *238:30 *348:55 0.000182051
64 *246:28 *348:55 0
65 *274:12 *348:28 0.000177981
66 *274:12 *348:55 0.00230375
67 *276:12 *348:44 0
68 *291:119 *348:84 0
69 *295:25 *348:84 0
70 *297:24 *348:20 0
71 *297:24 *348:28 0
72 *297:26 *348:36 0.000517207
73 *297:36 *348:36 0.000338565
74 *297:36 *348:44 0.000496753
75 *311:14 *348:84 0
76 *312:8 *348:84 0.00017625
77 *342:12 *348:28 0
78 *342:12 *348:55 0
79 *342:35 *348:55 0.000112198
80 *345:87 *348:36 4.77425e-05
81 *345:87 *348:44 7.31628e-05
82 *347:10 *348:84 0
83 *347:44 *348:28 0
84 *347:44 *348:36 0.00101564
*RES
1 *3431:X *348:10 45.8607 
2 *348:10 *348:18 36.6551 
3 *348:18 *348:20 3.9964 
4 *348:20 *348:28 26.2727 
5 *348:28 *348:36 33.5651 
6 *348:36 *348:44 44.841 
7 *348:44 *3461:A 20 
8 *348:28 *348:55 31.7317 
9 *348:55 *3362:CLK 20 
10 *348:20 *3326:CLK 20 
11 *348:18 *3327:CLK 20 
12 *348:10 *348:74 33.4518 
13 *348:74 *348:84 49.1155 
14 *348:84 *3225:CLK 20 
15 *348:74 *3311:CLK 20.3193 
*END

*D_NET *349 0.00860634
*CONN
*I *3155:B I *D sg13g2_xnor2_1
*I *3156:B I *D sg13g2_xnor2_1
*I *3168:B I *D sg13g2_xnor2_1
*I *3157:B I *D sg13g2_xnor2_1
*I *3432:X O *D sg13g2_buf_8
*CAP
1 *3155:B 0.000974216
2 *3156:B 0
3 *3168:B 0.000474599
4 *3157:B 0
5 *3432:X 8.61575e-05
6 *349:22 0.000866781
7 *349:14 0.000961717
8 *349:8 0.00162991
9 *3155:B *492:6 0
10 *3155:B *492:19 0
11 *3155:B *495:19 0
12 *349:8 *609:8 0
13 *349:14 *609:8 0
14 *349:22 *579:12 0
15 *349:22 *609:95 0
16 *349:22 *610:58 0
17 uio_oe[4] *349:14 0.000444314
18 *3157:A *349:22 4.77425e-05
19 *3342:CLK *349:14 0
20 *65:34 *349:8 0.000210631
21 *65:34 *349:14 0.00103033
22 *66:22 *349:22 1.54008e-05
23 *68:6 *3168:B 0
24 *80:10 *349:22 0
25 *245:8 *349:22 7.44734e-05
26 *292:10 *3168:B 0
27 *294:63 *3155:B 0.000984295
28 *297:26 *3168:B 1.54556e-05
29 *297:36 *3168:B 0.000370907
30 *300:38 *349:14 1.54008e-05
31 *300:38 *349:22 0
32 *300:52 *349:14 0.000404009
33 *345:48 *3155:B 0
34 *345:62 *3155:B 0
35 *345:87 *3168:B 0
36 *345:87 *349:22 0
*RES
1 *3432:X *349:8 41.0918 
2 *349:8 *349:14 27.4984 
3 *349:14 *349:22 43.4196 
4 *349:22 *3157:B 20 
5 *349:22 *3168:B 24.5938 
6 *349:14 *3156:B 20 
7 *349:8 *3155:B 49.6408 
*END

*D_NET *350 0.00829028
*CONN
*I *3474:A I *D sg13g2_buf_16
*I *2964:B I *D sg13g2_xnor2_1
*I *3433:X O *D sg13g2_buf_8
*CAP
1 *3474:A 0
2 *2964:B 0
3 *3433:X 0.000450666
4 *350:20 0.00103743
5 *350:12 0.00231698
6 *350:6 0.00173022
7 *350:6 *3362:D 0.000208137
8 *350:6 *564:14 0
9 *350:6 *649:10 0
10 *350:12 *523:20 0
11 *350:12 *532:8 0
12 *350:12 *564:14 0
13 *350:12 *649:10 0
14 *350:20 *3148:B 0.000177413
15 *350:20 *352:36 0
16 *350:20 *523:14 8.0001e-05
17 *67:12 *350:12 0.000653652
18 *68:6 *350:20 0
19 *68:19 *350:20 0
20 *71:10 *350:20 0.000823458
21 *74:12 *350:20 0
22 *271:8 *350:12 0.000556252
23 *297:36 *350:20 0.000240684
24 *297:46 *350:20 1.54008e-05
*RES
1 *3433:X *350:6 23.7801 
2 *350:6 *350:12 31.021 
3 *350:12 *350:20 29.3342 
4 *350:20 *2964:B 20 
5 *350:6 *3474:A 20 
*END

*D_NET *351 0.045585
*CONN
*I *3152:B I *D sg13g2_xnor2_1
*I *3167:B I *D sg13g2_xnor2_1
*I *3169:B I *D sg13g2_xnor2_1
*I *3166:B I *D sg13g2_xnor2_1
*I *3434:X O *D sg13g2_buf_8
*CAP
1 *3152:B 0.000954111
2 *3167:B 0.000907237
3 *3169:B 3.78335e-05
4 *3166:B 0.0022065
5 *3434:X 0.000290719
6 *351:71 0.00342988
7 *351:69 0.0038908
8 *351:24 0.00390506
9 *351:20 0.00521578
10 *351:10 0.00406286
11 *351:8 0.000290719
12 *3152:B *3065:S 0.000112426
13 *3152:B *419:40 0
14 *3152:B *486:16 0
15 *3152:B *591:31 0.000369743
16 *3152:B *591:41 8.00842e-05
17 *3152:B *706:67 0.000175836
18 *3166:B *2929:A 0
19 *3166:B *2945:B 0.000467497
20 *3166:B *2959:A 8.00842e-05
21 *3166:B *3151:B 0
22 *3166:B *3334:D 0
23 *3166:B *3576:A 0.000145105
24 *3166:B *515:22 0
25 *3166:B *556:8 0.000240684
26 *3166:B *559:10 0
27 *3166:B *561:24 0
28 *3166:B *561:36 0
29 *3166:B *569:10 0.000338223
30 *3166:B *590:8 0.000111037
31 *3166:B *606:48 0
32 *3166:B *609:40 8.00842e-05
33 *3166:B *609:56 0.000130505
34 *3166:B *609:72 0.000112763
35 *3167:B *428:14 0
36 *3167:B *443:10 0.000208995
37 *351:8 *508:10 0
38 *351:8 *688:8 0
39 *351:20 *3074:A0 0
40 *351:20 *3074:S 0.000176741
41 *351:20 *3237:RESET_B 0.000597921
42 *351:20 *3359:RESET_B 0.000596876
43 *351:20 *3362:RESET_B 0
44 *351:20 *489:6 0
45 *351:20 *489:23 0
46 *351:20 *554:22 0.000791044
47 *351:20 *623:60 0.000143908
48 *351:20 *624:54 0
49 *351:20 *624:56 0
50 *351:20 *624:58 0.000315552
51 *351:20 *624:60 0.000273739
52 *351:20 *649:16 0.000435801
53 *351:24 *517:10 0
54 *351:24 *518:18 0
55 *351:69 *504:10 0.000337402
56 *351:69 *508:6 0
57 *351:69 *509:8 0.000467404
58 *351:69 *625:41 0.00104891
59 *351:69 *625:49 0.000273739
60 *351:69 *649:16 0
61 *351:69 *657:10 0
62 *351:71 *356:14 0.00182221
63 *351:71 *356:33 0.00053192
64 *351:71 *483:10 0.00092566
65 *351:71 *562:63 0.000443366
66 *351:71 *630:47 0.000530563
67 *351:71 *630:53 0.000819599
68 uio_oe[3] *3167:B 0
69 uio_oe[3] *351:24 0
70 *3152:A *3152:B 0.000754707
71 *3166:A *3166:B 0.000661519
72 *3452:A *3152:B 0
73 *25:26 *3166:B 0.000209384
74 *25:44 *3166:B 0.000402535
75 *51:8 *3166:B 0.0001118
76 *90:14 *351:20 0
77 *108:14 *351:71 0
78 *247:32 *351:71 0
79 *247:50 *351:71 0.000758024
80 *273:10 *351:71 0.0011827
81 *289:15 *351:20 0
82 *296:8 *351:20 0
83 *297:8 *351:71 0
84 *297:10 *351:71 0
85 *297:46 *3166:B 0.000273882
86 *297:46 *3169:B 6.49135e-05
87 *298:62 *3166:B 0.000208968
88 *298:62 *3169:B 8.02269e-05
89 *301:12 *351:71 0.00249946
90 *317:10 *351:20 0
91 *317:16 *351:20 0
92 *345:26 *3167:B 0
93 *345:42 *3167:B 0
94 *345:42 *351:24 0
*RES
1 *3434:X *351:8 42.0806 
2 *351:8 *351:10 20 
3 *351:10 *351:20 46.677 
4 *351:20 *351:24 32.2158 
5 *351:24 *3166:B 42.866 
6 *351:24 *3169:B 20.5356 
7 *351:20 *3167:B 48.1164 
8 *351:10 *351:69 34.1625 
9 *351:69 *351:71 33.2278 
10 *351:71 *3152:B 49.4039 
*END

*D_NET *352 0.0587963
*CONN
*I *3463:A I *D sg13g2_buf_16
*I *3456:A I *D sg13g2_inv_2
*I *3153:B I *D sg13g2_xnor2_1
*I *3149:B I *D sg13g2_xnor2_1
*I *3148:B I *D sg13g2_xnor2_1
*I *3435:X O *D sg13g2_buf_8
*CAP
1 *3463:A 5.02077e-05
2 *3456:A 3.2862e-05
3 *3153:B 0
4 *3149:B 0
5 *3148:B 0.000281316
6 *3435:X 3.4268e-05
7 *352:74 0.00565498
8 *352:72 0.0061182
9 *352:36 0.000627397
10 *352:30 0.00236901
11 *352:26 0.0040718
12 *352:24 0.00204888
13 *352:22 0.00291453
14 *352:16 0.00406589
15 *352:10 0.00145404
16 *352:8 0.000817496
17 *3456:A *3435:A 0
18 *352:10 *607:33 0
19 *352:16 *555:12 0.000597328
20 *352:16 *583:195 0
21 *352:16 *607:31 2.22695e-05
22 *352:16 *701:127 0
23 *352:22 *385:40 7.90769e-05
24 *352:22 *591:12 0.000126354
25 *352:22 *627:28 0
26 *352:22 *701:127 0
27 *352:26 *414:48 0
28 *352:26 *416:37 0.000877412
29 *352:26 *563:22 0
30 *352:26 *573:28 0
31 *352:26 *583:32 0.00162303
32 *352:26 *628:26 0
33 *352:26 *692:33 0.00323794
34 *352:30 *600:81 0
35 *352:36 *523:14 8.0334e-05
36 *352:72 *607:33 0
37 *352:74 *482:10 0.00077681
38 *352:74 *605:38 0
39 *352:74 *607:33 0.0124727
40 *352:74 *607:41 0
41 *352:74 *647:33 0
42 *6:48 *352:22 0
43 *17:9 *352:30 0
44 *72:10 *352:30 0.00322194
45 *92:14 *352:30 0
46 *153:10 *352:22 0
47 *243:73 *352:30 0
48 *246:76 *352:26 0
49 *262:26 *352:22 0
50 *298:28 *3148:B 1.54285e-05
51 *298:28 *352:36 0.000518253
52 *298:32 *3148:B 0.000176422
53 *344:91 *352:16 0.00127797
54 *344:91 *352:22 0.00297476
55 *350:20 *3148:B 0.000177413
56 *350:20 *352:36 0
*RES
1 *3435:X *352:8 40.3193 
2 *352:8 *352:10 2.575 
3 *352:10 *352:16 12.6381 
4 *352:16 *352:22 45.9766 
5 *352:22 *352:24 20 
6 *352:24 *352:26 30.0142 
7 *352:26 *352:30 41.3004 
8 *352:30 *352:36 43.5638 
9 *352:36 *3148:B 22.7192 
10 *352:36 *3149:B 20 
11 *352:16 *3153:B 40 
12 *352:10 *3456:A 40.3193 
13 *352:8 *352:72 5.1191 
14 *352:72 *352:74 85.387 
15 *352:74 *3463:A 40.5356 
*END

*D_NET *353 0.0129667
*CONN
*I *3163:B I *D sg13g2_xnor2_1
*I *3469:A I *D sg13g2_buf_16
*I *3162:B I *D sg13g2_xnor2_1
*I *3165:B I *D sg13g2_xnor2_1
*I *3442:A I *D sg13g2_inv_2
*I *3436:X O *D sg13g2_buf_8
*CAP
1 *3163:B 0.000527602
2 *3469:A 0.000419578
3 *3162:B 0.000247944
4 *3165:B 0
5 *3442:A 0
6 *3436:X 0.000221972
7 *353:52 0.00109904
8 *353:41 0.000427533
9 *353:27 0.00083108
10 *353:12 0.000888412
11 *353:8 0.000251578
12 *3162:B *3218:RESET_B 0
13 *3162:B *3538:A 4.77425e-05
14 *3162:B *633:8 0
15 *3163:B *3123:S 0
16 *3163:B *3219:RESET_B 0.000273509
17 *3163:B *574:8 0.000341119
18 *3163:B *595:18 0.000319022
19 *3163:B *633:34 0
20 *3163:B *633:38 0
21 *3469:A *3054:A0 0
22 *3469:A *408:10 0.000306373
23 *353:8 *405:16 0
24 *353:8 *595:18 0.000663045
25 *353:27 *3051:A1 0.000234727
26 *353:27 *3052:S 0.000607525
27 *353:27 *3542:A 7.98582e-05
28 *353:27 *406:12 0.000265903
29 *353:27 *584:59 0.000820153
30 *353:27 *589:72 0.000128956
31 *353:27 *589:89 0.000980407
32 *353:27 *622:67 0.000447597
33 *353:27 *637:10 0.000112244
34 *353:52 *574:8 0.000820068
35 *353:52 *595:18 0.000821312
36 *3349:CLK *3163:B 0
37 *299:77 *3162:B 1.54008e-05
38 *326:10 *353:27 0.000159096
39 *326:16 *353:27 0.000607939
*RES
1 *3436:X *353:8 43.0694 
2 *353:8 *353:12 20.5356 
3 *353:12 *3442:A 20 
4 *353:12 *353:27 34.2552 
5 *353:27 *3165:B 40 
6 *3436:X *353:41 20.3502 
7 *353:41 *3162:B 22.266 
8 *353:41 *353:52 23.811 
9 *353:52 *3469:A 43.9964 
10 *353:52 *3163:B 46.283 
*END

*D_NET *354 0.0171505
*CONN
*I *3164:B I *D sg13g2_xnor2_1
*I *3161:B I *D sg13g2_xnor2_1
*I *3159:B I *D sg13g2_xnor2_1
*I *3160:B I *D sg13g2_xnor2_1
*I *3437:X O *D sg13g2_buf_8
*CAP
1 *3164:B 5.78122e-05
2 *3161:B 3.77166e-05
3 *3159:B 0
4 *3160:B 0
5 *3437:X 3.12218e-05
6 *354:51 0.00133939
7 *354:33 0.000450773
8 *354:18 0.00119735
9 *354:12 0.00152356
10 *354:6 0.00205206
11 *354:12 *3299:RESET_B 0
12 *354:12 *511:16 0.00172742
13 *354:12 *512:10 0
14 *354:18 *3578:A 0
15 *354:18 *511:16 0.00108689
16 *354:33 *3232:RESET_B 0
17 *354:33 *436:36 0
18 *354:33 *578:10 0.000447608
19 *354:33 *614:87 0
20 *354:51 *513:10 0
21 *354:51 *583:127 0.00173142
22 *354:51 *583:146 0.00218824
23 *3346:D *354:18 0
24 *84:8 *354:12 0
25 *226:10 *354:12 0
26 *281:20 *354:12 0
27 *299:39 *354:33 0.00119545
28 *299:54 *354:33 7.52149e-05
29 *300:119 *354:12 5.31192e-05
30 *300:119 *354:18 0.00108656
31 *339:40 *354:18 0.000820946
32 *339:40 *354:33 4.77425e-05
*RES
1 *3437:X *354:6 20.3193 
2 *354:6 *354:12 29.1979 
3 *354:12 *354:18 30.5575 
4 *354:18 *3160:B 20 
5 *354:18 *354:33 46.4272 
6 *354:33 *3159:B 20 
7 *354:12 *3161:B 40.3193 
8 *354:6 *354:51 38.1486 
9 *354:51 *3164:B 40.4476 
*END

*D_NET *355 0.00554661
*CONN
*I *3154:B I *D sg13g2_xnor2_1
*I *3453:A I *D sg13g2_inv_4
*I *3158:B I *D sg13g2_xnor2_1
*I *3438:X O *D sg13g2_buf_8
*CAP
1 *3154:B 0.000481583
2 *3453:A 0
3 *3158:B 0
4 *3438:X 0
5 *355:25 0.000931156
6 *355:14 0.00105835
7 *355:4 0.00150792
8 *3154:B *572:30 0
9 *3154:B *615:14 0.000305026
10 *355:14 *3130:A1 0
11 *355:14 *363:18 0
12 *355:14 *539:8 0
13 *355:14 *571:18 0
14 *355:14 *581:22 0
15 *355:14 *584:45 0.000335587
16 *355:14 *622:39 0
17 *355:14 *641:50 0.000143351
18 *355:25 *3522:A 0.000240444
19 *355:25 *377:10 4.75151e-05
20 *355:25 *572:30 0
21 uo_out[2] *355:14 0
22 *3158:A *355:14 1.54556e-05
23 *29:24 *355:14 0
24 *30:16 *355:14 8.02267e-05
25 *40:10 *355:14 4.75151e-05
26 *77:12 *3154:B 0
27 *278:18 *3154:B 0.000112246
28 *278:18 *355:25 0.000240231
*RES
1 *3438:X *355:4 20 
2 *355:4 *355:14 48.9301 
3 *355:14 *3158:B 20 
4 *355:4 *355:25 4.6659 
5 *355:25 *3453:A 20 
6 *355:25 *3154:B 24.6968 
*END

*D_NET *356 0.027999
*CONN
*I *3628:f_osc_multiply_factor[0] I *D multimode_dll
*I *3021:A0 I *D sg13g2_mux2_1
*I *3020:A0 I *D sg13g2_mux2_1
*I *3185:Q O *D sg13g2_dfrbpq_1
*CAP
1 *3628:f_osc_multiply_factor[0] 0.00109355
2 *3021:A0 0.000142529
3 *3020:A0 0
4 *3185:Q 0
5 *356:47 0.00161507
6 *356:43 0.0023499
7 *356:33 0.0022382
8 *356:20 0.00101574
9 *356:14 0.00178224
10 *356:6 0.00103379
11 *3021:A0 *3021:A1 8.01642e-05
12 *3021:A0 *3021:S 0
13 *3628:f_osc_multiply_factor[0] *3023:A0 3.23417e-05
14 *3628:f_osc_multiply_factor[0] *3628:f_osc_multiply_factor[1] 0
15 *3628:f_osc_multiply_factor[0] *385:28 0.000987814
16 *3628:f_osc_multiply_factor[0] *393:6 4.75151e-05
17 *3628:f_osc_multiply_factor[0] *393:28 0.000304832
18 *3628:f_osc_multiply_factor[0] *404:29 0.000175693
19 *3628:f_osc_multiply_factor[0] *415:36 0
20 *3628:f_osc_multiply_factor[0] *598:25 0.000212127
21 *3628:f_osc_multiply_factor[0] *599:124 0.000181192
22 *3628:f_osc_multiply_factor[0] *641:118 0.00109573
23 *356:20 *639:32 0.000762149
24 *356:43 *617:14 0
25 *356:43 *648:14 0
26 *356:43 *698:37 0.00244473
27 *356:47 *598:25 0.000234224
28 *356:47 *599:124 0.000449137
29 *356:47 *600:24 0
30 *3187:D *3628:f_osc_multiply_factor[0] 0
31 *54:16 *356:43 0
32 *108:14 *356:14 0.00050146
33 *108:14 *356:20 0
34 *240:18 *356:43 0
35 *243:12 *356:20 0
36 *243:14 *356:20 0.00233959
37 *273:24 *356:43 0
38 *290:43 *356:47 0
39 *290:59 *3021:A0 0
40 *300:26 *356:43 0.000823763
41 *318:48 *356:20 0.0001122
42 *328:80 *356:20 0.000870681
43 *345:12 *356:14 0
44 *345:12 *356:20 0.00271852
45 *345:12 *356:33 0
46 *351:71 *356:14 0.00182221
47 *351:71 *356:33 0.00053192
*RES
1 *3185:Q *356:6 40 
2 *356:6 *356:14 49.2597 
3 *356:14 *356:20 37.9117 
4 *356:20 *3020:A0 20 
5 *356:6 *356:33 42.8943 
6 *356:33 *356:43 45.9972 
7 *356:43 *356:47 24.5526 
8 *356:47 *3021:A0 41.1845 
9 *356:47 *3628:f_osc_multiply_factor[0] 33.4003 
*END

*D_NET *357 0.00349286
*CONN
*I *3624:D I *D SwitchMatrixMultiplexer
*I *3121:A0 I *D sg13g2_mux2_1
*I *3120:A1 I *D sg13g2_mux2_1
*I *3285:Q O *D sg13g2_dfrbpq_1
*CAP
1 *3624:D 0.000593759
2 *3121:A0 0
3 *3120:A1 0.000176034
4 *3285:Q 0.000361799
5 *357:25 0.000593759
6 *357:14 0.000537833
7 *3120:A1 *358:16 0.000128576
8 *3120:A1 *359:27 0
9 *3120:A1 *360:12 0.000449343
10 *3624:D *3122:S 0
11 *3624:D *3564:A 0
12 *3624:D *3624:SEL 1.40176e-05
13 *3624:D *358:16 0
14 *3624:D *358:46 3.23417e-05
15 *3624:D *358:56 1.54008e-05
16 *3624:D *593:34 0
17 *3624:D *655:12 0
18 *357:14 *3286:RESET_B 6.16032e-06
19 *357:14 *3564:A 5.6983e-05
20 *357:14 *358:8 0.000371639
21 *357:14 *358:16 7.51285e-05
22 *357:14 *359:19 8.00842e-05
23 *357:14 *637:16 0
24 *324:12 *357:14 0
*RES
1 *3285:Q *357:14 44.1509 
2 *357:14 *3120:A1 42.3278 
3 *357:14 *357:25 20 
4 *357:25 *3121:A0 20 
5 *357:25 *3624:D 25.0161 
*END

*D_NET *358 0.00754923
*CONN
*I *3121:A1 I *D sg13g2_mux2_1
*I *3122:A0 I *D sg13g2_mux2_1
*I *3623:GATE I *D latch
*I *3622:D I *D SwitchMatrixMultiplexer_inv
*I *3286:Q O *D sg13g2_dfrbpq_1
*CAP
1 *3121:A1 0
2 *3122:A0 0
3 *3623:GATE 0.000202394
4 *3622:D 0.000405242
5 *3286:Q 0.000614588
6 *358:56 0.000609053
7 *358:46 0.000638294
8 *358:16 0.00134606
9 *358:8 0.00138226
10 *3622:D *2990:B_N 0
11 *3622:D *3285:RESET_B 0.000143351
12 *3622:D *595:41 0
13 *3622:D *634:54 9.71404e-05
14 *3623:GATE *3623:D 0
15 *358:8 *359:27 0.000340704
16 *358:8 *593:47 0
17 *358:16 *2997:B2 0
18 *358:16 *3120:A0 0
19 *358:16 *3121:S 0.000208825
20 *358:16 *3624:SEL 3.55832e-05
21 *358:16 *359:27 0.000181192
22 *358:16 *654:10 0
23 *358:56 *3122:A1 0.000176673
24 *358:56 *3122:S 0
25 *358:56 *360:12 0
26 *358:56 *360:40 0
27 *2991:B1 *3623:GATE 0
28 *2991:B1 *358:16 0
29 *3120:A1 *358:16 0.000128576
30 *3624:D *358:16 0
31 *3624:D *358:46 3.23417e-05
32 *3624:D *358:56 1.54008e-05
33 *250:57 *3622:D 0.000182109
34 *250:57 *3623:GATE 0.000207708
35 *252:8 *3622:D 0
36 *282:23 *3622:D 0
37 *283:19 *3623:GATE 0.000154971
38 *324:12 *358:8 0
39 *325:16 *358:56 0
40 *357:14 *358:8 0.000371639
41 *357:14 *358:16 7.51285e-05
*RES
1 *3286:Q *358:8 47.519 
2 *358:8 *358:16 47.004 
3 *358:16 *3622:D 44.0942 
4 *358:16 *3623:GATE 42.0446 
5 *358:8 *358:46 20.3193 
6 *358:46 *358:56 45.4384 
7 *358:56 *3122:A0 20 
8 *358:46 *3121:A1 20 
*END

*D_NET *359 0.00737479
*CONN
*I *3564:A I *D sg13g2_dlygate4sd3_1
*I *3123:A0 I *D sg13g2_mux2_1
*I *3122:A1 I *D sg13g2_mux2_1
*I *3287:Q O *D sg13g2_dfrbpq_1
*CAP
1 *3564:A 0.000302634
2 *3123:A0 0
3 *3122:A1 0.000239511
4 *3287:Q 0.000554954
5 *359:27 0.000811318
6 *359:19 0.0012901
7 *359:10 0.000415663
8 *359:8 0.000554954
9 *3122:A1 *3122:S 0
10 *3564:A *637:16 0
11 *359:19 *3122:S 0
12 *359:19 *3287:RESET_B 0
13 *359:27 *3124:A0 0
14 *359:27 *360:12 0
15 *359:27 *536:18 8.0342e-05
16 *359:27 *593:47 0
17 *3120:A1 *359:27 0
18 *3286:D *359:19 8.00842e-05
19 *3287:D *3122:A1 0.000242213
20 *3288:D *359:27 0
21 *3624:D *3564:A 0
22 *208:8 *359:27 0.000554665
23 *324:12 *359:8 0.00141271
24 *325:16 *359:8 0
25 *357:14 *3564:A 5.6983e-05
26 *357:14 *359:19 8.00842e-05
27 *358:8 *359:27 0.000340704
28 *358:16 *359:27 0.000181192
29 *358:56 *3122:A1 0.000176673
*RES
1 *3287:Q *359:8 46.5302 
2 *359:8 *359:10 20 
3 *359:10 *3122:A1 22.6986 
4 *359:10 *359:19 1.8334 
5 *359:19 *359:27 49.0434 
6 *359:27 *3123:A0 20 
7 *359:19 *3564:A 23.1312 
*END

*D_NET *360 0.00706498
*CONN
*I *3566:A I *D sg13g2_dlygate4sd3_1
*I *3123:A1 I *D sg13g2_mux2_1
*I *3124:A0 I *D sg13g2_mux2_1
*I *3288:Q O *D sg13g2_dfrbpq_1
*CAP
1 *3566:A 0
2 *3123:A1 0
3 *3124:A0 0.000528768
4 *3288:Q 0
5 *360:40 0.000259268
6 *360:12 0.0012703
7 *360:4 0.0010008
8 *3124:A0 *3124:A1 5.00526e-06
9 *3124:A0 *3124:S 0
10 *3124:A0 *361:10 0
11 *3124:A0 *361:12 0
12 *3124:A0 *658:14 0.00146235
13 *360:12 *3122:S 0
14 *360:12 *658:8 0.000144054
15 *360:12 *658:14 0.00128065
16 *360:40 *3122:S 0
17 *360:40 *538:10 0.000664443
18 *3120:A1 *360:12 0.000449343
19 *56:12 *3124:A0 0
20 *325:16 *360:40 0
21 *358:56 *360:12 0
22 *358:56 *360:40 0
23 *359:27 *3124:A0 0
24 *359:27 *360:12 0
*RES
1 *3288:Q *360:4 20 
2 *360:4 *360:12 29.7644 
3 *360:12 *3124:A0 47.3774 
4 *360:12 *3123:A1 40 
5 *360:4 *360:40 43.8213 
6 *360:40 *3566:A 20 
*END

*D_NET *361 0.00889716
*CONN
*I *3124:A1 I *D sg13g2_mux2_1
*I *3316:D I *D sg13g2_dfrbpq_1
*I *3125:A0 I *D sg13g2_mux2_1
*I *3289:Q O *D sg13g2_dfrbpq_1
*CAP
1 *3124:A1 5.30806e-05
2 *3316:D 0.000195216
3 *3125:A0 0.000415027
4 *3289:Q 0.000807883
5 *361:12 0.00201117
6 *361:10 0.00226189
7 *3124:A1 *3124:S 0
8 *3125:A0 *3125:A1 4.77425e-05
9 *3125:A0 *512:10 0
10 *3125:A0 *582:75 0.000555909
11 *3125:A0 *619:23 0
12 *3316:D *619:23 0
13 *361:10 *3123:S 8.01995e-05
14 *361:10 *512:10 0
15 *361:10 *536:18 0.000273536
16 *361:12 *512:10 0
17 *361:12 *582:75 0.00219049
18 *361:12 *658:14 0
19 *3124:A0 *3124:A1 5.00526e-06
20 *3124:A0 *361:10 0
21 *3124:A0 *361:12 0
22 *212:10 *3124:A1 0
23 *324:14 *361:12 0
*RES
1 *3289:Q *361:10 47.3748 
2 *361:10 *361:12 15.1822 
3 *361:12 *3125:A0 44.4084 
4 *361:12 *3316:D 41.8334 
5 *361:10 *3124:A1 40.5356 
*END

*D_NET *362 0.0114406
*CONN
*I *3125:A1 I *D sg13g2_mux2_1
*I *3575:A I *D sg13g2_dlygate4sd3_1
*I *3126:A0 I *D sg13g2_mux2_1
*I *3290:Q O *D sg13g2_dfrbpq_1
*CAP
1 *3125:A1 3.04198e-05
2 *3575:A 3.4601e-05
3 *3126:A0 0
4 *3290:Q 0.00051199
5 *362:24 0.000679044
6 *362:18 0.00176524
7 *362:10 0.001594
8 *362:10 *512:10 0
9 *362:18 *512:10 0
10 *362:18 *542:12 0.00103969
11 *362:24 *574:8 0
12 *362:24 *595:12 0
13 *362:24 *595:18 0.0026869
14 *362:24 *621:22 0.000341205
15 *3125:A0 *3125:A1 4.77425e-05
16 *3350:D *362:10 0
17 *3351:D *362:18 0
18 *294:41 *362:24 0.00156858
19 *327:32 *362:10 0.00114116
20 *327:32 *362:18 0
*RES
1 *3290:Q *362:10 46.9113 
2 *362:10 *362:18 31.5566 
3 *362:18 *362:24 32.7823 
4 *362:24 *3126:A0 40 
5 *362:18 *3575:A 20.3193 
6 *362:10 *3125:A1 40.3193 
*END

*D_NET *363 0.0162563
*CONN
*I *3126:A1 I *D sg13g2_mux2_1
*I *3318:D I *D sg13g2_dfrbpq_1
*I *3127:A0 I *D sg13g2_mux2_1
*I *3291:Q O *D sg13g2_dfrbpq_1
*CAP
1 *3126:A1 0.000103912
2 *3318:D 0.000531646
3 *3127:A0 0.000159007
4 *3291:Q 0.00047436
5 *363:20 0.000690654
6 *363:18 0.00239603
7 *363:10 0.0029743
8 *3126:A1 *3133:S 0
9 *3127:A0 *570:14 0
10 *3318:D *3332:D 0
11 *3318:D *570:14 0
12 *3318:D *583:121 0.000176252
13 *363:10 *376:12 0.000909705
14 *363:10 *590:61 0.000143351
15 *363:10 *595:18 0
16 *363:18 *376:12 0.0053642
17 *363:18 *376:24 0
18 *363:18 *539:8 0.000872853
19 *363:18 *584:51 0
20 *363:18 *595:12 0
21 *363:18 *595:18 0
22 *363:18 *622:39 0
23 uo_out[4] *3127:A0 0.00049543
24 uo_out[4] *3318:D 0
25 *29:24 *363:18 0
26 *215:12 *3127:A0 0.000179389
27 *278:10 *3318:D 0.000336795
28 *278:10 *363:18 0.000208035
29 *278:18 *3318:D 0
30 *279:8 *363:18 0
31 *317:43 *3318:D 0.000240377
32 *355:14 *363:18 0
*RES
1 *3291:Q *363:10 45.2736 
2 *363:10 *363:18 49.8494 
3 *363:18 *363:20 20 
4 *363:20 *3127:A0 42.3278 
5 *363:20 *3318:D 45.3972 
6 *363:10 *3126:A1 40.9682 
*END

*D_NET *364 0.0118618
*CONN
*I *3127:A1 I *D sg13g2_mux2_1
*I *3128:A0 I *D sg13g2_mux2_1
*I *3319:D I *D sg13g2_dfrbpq_1
*I *3292:Q O *D sg13g2_dfrbpq_1
*CAP
1 *3127:A1 0.00037422
2 *3128:A0 2.45224e-05
3 *3319:D 0
4 *3292:Q 0.000405952
5 *364:28 0.000114668
6 *364:22 0.00137474
7 *364:18 0.00197062
8 *364:8 0.00151524
9 *3127:A1 *3139:A0 0.00036852
10 *3127:A1 *376:34 0.00018583
11 *3127:A1 *585:75 0
12 *3127:A1 *622:20 0.000400889
13 *3128:A0 *365:35 1.54008e-05
14 *3128:A0 *561:44 3.23417e-05
15 *364:8 *606:12 0.000127645
16 *364:8 *606:20 0
17 *364:18 *560:22 0.00105868
18 *364:18 *561:48 0.0010574
19 *364:22 *3129:A1 0.000250434
20 *364:22 *3141:A0 0.000465852
21 *364:22 *365:22 0.000176365
22 *364:22 *365:35 4.77425e-05
23 *364:22 *379:37 0
24 *364:22 *514:30 0.000176105
25 *364:22 *549:12 0.000209454
26 *364:22 *558:24 0.000984971
27 *364:22 *561:44 0.000111568
28 *364:28 *365:35 7.33256e-05
29 *364:28 *559:16 0
30 *364:28 *560:18 0
31 *364:28 *588:46 0.000339316
32 *3166:A *364:22 0
33 *3292:CLK *364:8 0
34 *344:55 *364:22 0
*RES
1 *3292:Q *364:8 43.0694 
2 *364:8 *364:18 48.2194 
3 *364:18 *364:22 32.8647 
4 *364:22 *364:28 41.5862 
5 *364:28 *3319:D 20 
6 *364:22 *3128:A0 20.3193 
7 *364:8 *3127:A1 44.3672 
*END

*D_NET *365 0.0059483
*CONN
*I *3571:A I *D sg13g2_dlygate4sd3_1
*I *3128:A1 I *D sg13g2_mux2_1
*I *3129:A0 I *D sg13g2_mux2_1
*I *3293:Q O *D sg13g2_dfrbpq_1
*CAP
1 *3571:A 0
2 *3128:A1 0
3 *3129:A0 0
4 *3293:Q 0.000704234
5 *365:48 0.000215565
6 *365:35 0.000208652
7 *365:22 0.000384068
8 *365:12 0.000772562
9 *365:10 0.000395408
10 *365:8 0.000704234
11 *365:8 *560:10 0
12 *365:8 *580:28 0
13 *365:8 *609:30 0
14 *365:8 *616:58 0
15 *365:12 *581:10 0.000293693
16 *365:22 *581:10 0.000378803
17 *365:22 *582:151 0
18 *365:22 *590:16 0.0002802
19 *365:48 *3334:D 0.000145099
20 *365:48 *561:36 0.000145099
21 *365:48 *581:10 0.000229972
22 uio_out[6] *365:22 0.000280554
23 *3128:A0 *365:35 1.54008e-05
24 *25:34 *365:12 4.82481e-05
25 *25:34 *365:22 0.00037606
26 *25:44 *365:35 7.30101e-05
27 *30:20 *365:48 0
28 *217:12 *365:22 0
29 *364:22 *365:22 0.000176365
30 *364:22 *365:35 4.77425e-05
31 *364:28 *365:35 7.33256e-05
*RES
1 *3293:Q *365:8 45.047 
2 *365:8 *365:10 20 
3 *365:10 *365:12 2.0497 
4 *365:12 *365:22 45.0058 
5 *365:22 *3129:A0 20 
6 *365:12 *365:35 41.6583 
7 *365:35 *3128:A1 20 
8 *365:10 *365:48 42.5853 
9 *365:48 *3571:A 20 
*END

*D_NET *366 0.00976374
*CONN
*I *3130:A0 I *D sg13g2_mux2_1
*I *3577:A I *D sg13g2_dlygate4sd3_1
*I *3129:A1 I *D sg13g2_mux2_1
*I *3294:Q O *D sg13g2_dfrbpq_1
*CAP
1 *3130:A0 0
2 *3577:A 5.18371e-05
3 *3129:A1 0.000345206
4 *3294:Q 0.0004317
5 *366:60 0.000956498
6 *366:46 0.0017594
7 *366:27 0.00145553
8 *366:8 0.0013777
9 *3129:A1 *3333:D 0
10 *3129:A1 *615:54 0.000279855
11 *3577:A *3306:RESET_B 0
12 *366:8 *496:23 0
13 *366:8 *615:54 0.000178206
14 *366:27 *3333:D 0.000533078
15 *366:27 *377:31 0
16 *366:27 *379:37 0
17 *366:46 *3306:RESET_B 0.000273207
18 *366:46 *3524:A 0.000126769
19 *366:46 *377:31 0
20 *366:46 *581:22 0
21 *366:60 *376:34 0
22 *366:60 *568:8 0.000466876
23 *366:60 *585:62 1.54285e-05
24 *366:60 *585:75 0
25 *366:60 *622:37 0.000369003
26 uio_out[0] *366:46 0
27 uio_out[4] *3129:A1 0
28 uio_out[4] *366:8 0
29 *2953:A *366:60 0.000531333
30 *13:21 *366:46 0
31 *29:24 *366:27 0
32 *39:22 *366:46 0
33 *39:48 *366:8 0.000179096
34 *66:22 *366:8 0
35 *215:12 *366:60 7.00333e-05
36 *217:12 *3129:A1 0
37 *281:28 *366:60 0.000112541
38 *344:47 *366:8 0
39 *344:55 *366:8 0
40 *344:55 *366:27 0
41 *364:22 *3129:A1 0.000250434
*RES
1 *3294:Q *366:8 44.3054 
2 *366:8 *3129:A1 43.8419 
3 *366:8 *366:27 25.7268 
4 *366:27 *3577:A 20.5974 
5 *366:27 *366:46 48.0752 
6 *366:46 *366:60 49.6614 
7 *366:60 *3130:A0 20 
*END

*D_NET *367 0.0104172
*CONN
*I *3030:A1 I *D sg13g2_mux2_1
*I *3031:A0 I *D sg13g2_mux2_1
*I *3628:f_clk1_divider[0] I *D multimode_dll
*I *3195:Q O *D sg13g2_dfrbpq_1
*CAP
1 *3030:A1 2.45197e-05
2 *3031:A0 0.000522166
3 *3628:f_clk1_divider[0] 0.000378837
4 *3195:Q 0.000350933
5 *367:18 0.000901003
6 *367:16 0.000980547
7 *367:12 0.00109434
8 *367:8 0.000440205
9 *3031:A0 *3031:A1 0.00040137
10 *3031:A0 *3628:f_clk1_divider[1] 0
11 *3031:A0 *598:82 1.51e-05
12 *3628:f_clk1_divider[0] *3628:f_clk1_divider[1] 0
13 *3628:f_clk1_divider[0] *3628:f_osc_multiply_factor[2] 0
14 *3628:f_clk1_divider[0] *404:25 0
15 *367:8 *3195:RESET_B 0.000181608
16 *367:8 *413:57 0.000928293
17 *367:8 *414:18 0
18 *367:8 *599:48 0
19 *367:8 *599:61 0
20 *367:8 *640:21 0.000607524
21 *367:8 *640:32 0.000395897
22 *367:12 *500:21 0
23 *367:16 *414:18 0
24 *367:16 *599:48 0.000235556
25 *367:16 *638:58 0.000395878
26 *367:16 *638:69 0.000215107
27 *367:16 *638:80 0.00123176
28 *367:16 *638:99 0.000748256
29 *3195:D *3030:A1 4.77425e-05
30 *3195:D *367:12 0.0001447
31 *3196:D *3031:A0 0
32 *3454:A *3628:f_clk1_divider[0] 0
33 *112:14 *3031:A0 0.000175836
34 *298:108 *367:16 0
*RES
1 *3195:Q *367:8 46.5302 
2 *367:8 *367:12 20.9682 
3 *367:12 *367:16 35.4294 
4 *367:16 *367:18 20 
5 *367:18 *3628:f_clk1_divider[0] 3.4402 
6 *367:18 *3031:A0 25.1294 
7 *367:12 *3030:A1 20.3193 
*END

*D_NET *368 0.00455742
*CONN
*I *3131:A0 I *D sg13g2_mux2_1
*I *3567:A I *D sg13g2_dlygate4sd3_1
*I *3130:A1 I *D sg13g2_mux2_1
*I *3295:Q O *D sg13g2_dfrbpq_1
*CAP
1 *3131:A0 0.00017845
2 *3567:A 0.000265511
3 *3130:A1 0.000321778
4 *3295:Q 0
5 *368:10 0.000931808
6 *368:4 0.000522969
7 *3130:A1 *581:22 0.000761498
8 *3130:A1 *622:39 0
9 *3131:A0 *3131:A1 0.000273064
10 *3131:A0 *585:14 1.54008e-05
11 *3131:A0 *585:23 0.000305406
12 *3567:A *3332:D 4.77425e-05
13 *3567:A *376:16 0.00014391
14 *368:10 *581:22 0
15 *368:10 *622:39 0
16 *3296:CLK *368:10 0.00066189
17 *317:43 *3567:A 0
18 *317:82 *368:10 0.000127991
19 *355:14 *3130:A1 0
*RES
1 *3295:Q *368:4 20 
2 *368:4 *368:10 24.3775 
3 *368:10 *3130:A1 43.5638 
4 *368:10 *3567:A 42.266 
5 *368:4 *3131:A0 22.0497 
*END

*D_NET *369 0.00506081
*CONN
*I *3132:A0 I *D sg13g2_mux2_1
*I *3573:A I *D sg13g2_dlygate4sd3_1
*I *3131:A1 I *D sg13g2_mux2_1
*I *3296:Q O *D sg13g2_dfrbpq_1
*CAP
1 *3132:A0 0.000330158
2 *3573:A 5.61002e-05
3 *3131:A1 0.000921592
4 *3296:Q 0
5 *369:19 0.000410046
6 *369:6 0.00094538
7 *3131:A1 *582:45 0.000922645
8 *3131:A1 *583:127 0
9 *3131:A1 *622:39 0
10 *3132:A0 *582:45 0.000284686
11 *3573:A *566:30 8.00842e-05
12 *369:19 *582:45 0.000127936
13 *3131:A0 *3131:A1 0.000273064
14 *3296:CLK *3131:A1 0
15 *38:10 *3131:A1 0.000340467
16 *38:10 *3132:A0 0.0002629
17 *38:10 *369:19 0.000105753
18 *48:18 *3131:A1 0
*RES
1 *3296:Q *369:6 40 
2 *369:6 *3131:A1 49.3524 
3 *369:6 *369:19 0.5974 
4 *369:19 *3573:A 40.5356 
5 *369:19 *3132:A0 43.605 
*END

*D_NET *370 0.00516122
*CONN
*I *3133:A0 I *D sg13g2_mux2_1
*I *3578:A I *D sg13g2_dlygate4sd3_1
*I *3132:A1 I *D sg13g2_mux2_1
*I *3297:Q O *D sg13g2_dfrbpq_1
*CAP
1 *3133:A0 0.00028542
2 *3578:A 0.000180446
3 *3132:A1 0
4 *3297:Q 0
5 *370:18 0.000183144
6 *370:12 0.000787387
7 *370:6 0.000709217
8 *3133:A0 *3133:S 0
9 *3133:A0 *3291:RESET_B 0
10 *3578:A *2982:A0 0
11 *370:18 *511:16 0.000979994
12 *43:8 *370:12 0
13 *281:20 *3133:A0 0
14 *281:20 *370:12 0
15 *300:119 *3133:A0 0.000128576
16 *300:119 *370:12 0.000927462
17 *300:119 *370:18 0.000979578
18 *354:18 *3578:A 0
*RES
1 *3297:Q *370:6 40 
2 *370:6 *370:12 24.841 
3 *370:12 *370:18 44.5526 
4 *370:18 *3132:A1 20 
5 *370:12 *3578:A 21.6171 
6 *370:6 *3133:A0 42.6471 
*END

*D_NET *371 0.00501779
*CONN
*I *3134:A0 I *D sg13g2_mux2_1
*I *3133:A1 I *D sg13g2_mux2_1
*I *3569:A I *D sg13g2_dlygate4sd3_1
*I *3298:Q O *D sg13g2_dfrbpq_1
*CAP
1 *3134:A0 0.000246699
2 *3133:A1 0
3 *3569:A 0.000144855
4 *3298:Q 0
5 *371:25 0.000673764
6 *371:10 0.00100262
7 *371:4 0.000430701
8 *3134:A0 *3134:S 0
9 *3569:A *374:18 0
10 *3569:A *590:61 0.000241512
11 *371:10 *374:18 0.000557987
12 *371:25 *374:18 0
13 *371:25 *512:10 0
14 *371:25 *582:55 0
15 *371:25 *582:69 0.000979579
16 *371:25 *589:27 0
17 *371:25 *590:61 0.000339096
18 *371:25 *613:74 0
19 *3299:D *3134:A0 0.000272814
20 *324:32 *371:25 0.00012816
21 *325:28 *371:10 0
*RES
1 *3298:Q *371:4 20 
2 *371:4 *371:10 42.575 
3 *371:10 *3569:A 21.6171 
4 *371:10 *371:25 48.3018 
5 *371:25 *3133:A1 20 
6 *371:4 *3134:A0 22.9149 
*END

*D_NET *372 0.00300622
*CONN
*I *3574:A I *D sg13g2_dlygate4sd3_1
*I *3135:A0 I *D sg13g2_mux2_1
*I *3134:A1 I *D sg13g2_mux2_1
*I *3299:Q O *D sg13g2_dfrbpq_1
*CAP
1 *3574:A 0.000144989
2 *3135:A0 0
3 *3134:A1 0.000600882
4 *3299:Q 0.000194247
5 *372:21 0.000707979
6 *372:10 0.00135812
7 *3134:A1 *374:18 0
8 *3134:A1 *590:61 0
9 *3574:A *373:10 0
10 *3574:A *374:10 0
11 *372:10 *3136:A1 0
12 *372:21 *3135:S 0
13 *372:21 *3136:A0 0
14 *372:21 *374:10 0
15 *372:21 *374:12 0
16 *372:21 *374:18 0
17 *372:21 *590:61 0
18 *3301:D *372:10 0
19 *325:22 *3574:A 0
*RES
1 *3299:Q *372:10 41.9673 
2 *372:10 *3134:A1 45.7886 
3 *372:10 *372:21 5.2942 
4 *372:21 *3135:A0 40 
5 *372:21 *3574:A 41.5862 
*END

*D_NET *373 0.00401594
*CONN
*I *3568:A I *D sg13g2_dlygate4sd3_1
*I *3135:A1 I *D sg13g2_mux2_1
*I *3136:A0 I *D sg13g2_mux2_1
*I *3300:Q O *D sg13g2_dfrbpq_1
*CAP
1 *3568:A 0.000209022
2 *3135:A1 5.64003e-05
3 *3136:A0 0.000366621
4 *3300:Q 0.000421745
5 *373:10 0.00115563
6 *373:8 0.000945329
7 *3136:A0 *3135:S 0.000668978
8 *3136:A0 *3136:A1 1.54008e-05
9 *3568:A *620:27 0
10 *373:8 *620:37 0.000176815
11 *373:10 *620:37 0
12 *3328:CLK *373:8 0
13 *3574:A *373:10 0
14 *372:21 *3136:A0 0
*RES
1 *3300:Q *373:8 42.266 
2 *373:8 *373:10 7.7662 
3 *373:10 *3136:A0 44.8101 
4 *373:10 *3135:A1 40.5356 
5 *3300:Q *3568:A 42.2454 
*END

*D_NET *374 0.00516825
*CONN
*I *3579:A I *D sg13g2_dlygate4sd3_1
*I *3136:A1 I *D sg13g2_mux2_1
*I *3137:A0 I *D sg13g2_mux2_1
*I *3301:Q O *D sg13g2_dfrbpq_1
*CAP
1 *3579:A 0.000263579
2 *3136:A1 0.000132691
3 *3137:A0 0
4 *3301:Q 0.000286803
5 *374:18 0.00131116
6 *374:12 0.00162771
7 *374:10 0.000734237
8 *3579:A *619:23 0
9 *374:18 *2983:A0 0
10 *374:18 *3137:A1 1.54008e-05
11 *374:18 *3137:S 0
12 *374:18 *3298:RESET_B 0
13 *374:18 *541:8 0
14 *374:18 *590:61 0
15 *374:18 *665:8 0
16 *3134:A1 *374:18 0
17 *3136:A0 *3136:A1 1.54008e-05
18 *3300:D *374:10 0
19 *3301:D *3136:A1 0.000111076
20 *3301:D *3579:A 0
21 *3301:CLK *3579:A 0.000112198
22 *3569:A *374:18 0
23 *3574:A *374:10 0
24 *324:32 *374:18 0
25 *325:22 *374:10 0
26 *325:22 *374:12 0
27 *325:22 *374:18 0
28 *325:28 *374:18 0
29 *371:10 *374:18 0.000557987
30 *371:25 *374:18 0
31 *372:10 *3136:A1 0
32 *372:21 *374:10 0
33 *372:21 *374:12 0
34 *372:21 *374:18 0
*RES
1 *3301:Q *374:10 43.1415 
2 *374:10 *374:12 2.0806 
3 *374:12 *374:18 35.1616 
4 *374:18 *3137:A0 20 
5 *374:12 *3136:A1 41.4008 
6 *374:10 *3579:A 42.6986 
*END

*D_NET *375 0.00587833
*CONN
*I *3570:A I *D sg13g2_dlygate4sd3_1
*I *3138:A0 I *D sg13g2_mux2_1
*I *3137:A1 I *D sg13g2_mux2_1
*I *3302:Q O *D sg13g2_dfrbpq_1
*CAP
1 *3570:A 0.000224516
2 *3138:A0 7.10592e-05
3 *3137:A1 0.000203357
4 *3302:Q 0
5 *375:8 0.000898961
6 *375:6 0.000849061
7 *3137:A1 *3137:S 0
8 *3137:A1 *512:10 0.00050146
9 *3137:A1 *589:14 0
10 *3137:A1 *589:27 0
11 *3138:A0 *3138:A1 0.000112426
12 *3570:A *512:10 0.000128541
13 *3570:A *582:75 0
14 *375:8 *512:10 0.00194609
15 *375:8 *582:75 0
16 *225:8 *3137:A1 0.00034162
17 *225:8 *375:8 0.000585841
18 *374:18 *3137:A1 1.54008e-05
*RES
1 *3302:Q *375:6 40 
2 *375:6 *375:8 9.0022 
3 *375:8 *3137:A1 43.0797 
4 *375:8 *3138:A0 40.7519 
5 *375:6 *3570:A 42.2145 
*END

*D_NET *376 0.0241154
*CONN
*I *3138:A1 I *D sg13g2_mux2_1
*I *3332:D I *D sg13g2_dfrbpq_1
*I *3139:A0 I *D sg13g2_mux2_1
*I *3303:Q O *D sg13g2_dfrbpq_1
*CAP
1 *3138:A1 0.000531799
2 *3332:D 0.000230384
3 *3139:A0 0.000536618
4 *3303:Q 0.000270606
5 *376:34 0.000994061
6 *376:24 0.000702069
7 *376:16 0.000582303
8 *376:12 0.0014209
9 *376:10 0.00211601
10 *3138:A1 *3527:A 4.68833e-05
11 *3138:A1 *590:61 0
12 *3139:A0 *3306:RESET_B 0
13 *3139:A0 *377:14 0.000498847
14 *3139:A0 *622:20 0
15 *3332:D *641:50 0.000143351
16 *376:10 *3317:D 7.92265e-05
17 *376:10 *595:18 0
18 *376:10 *622:39 5.30319e-05
19 *376:10 *622:52 0.000554579
20 *376:12 *595:18 0
21 *376:12 *622:39 0.00661489
22 *376:24 *539:8 0
23 *376:24 *572:30 0.00014454
24 *376:24 *584:51 0.000337555
25 *376:34 *3528:A 0
26 *376:34 *585:75 0
27 *376:34 *622:37 7.86681e-05
28 *2953:A *376:34 4.75425e-05
29 *3127:A1 *3139:A0 0.00036852
30 *3127:A1 *376:34 0.00018583
31 *3138:A0 *3138:A1 0.000112426
32 *3318:D *3332:D 0
33 *3567:A *3332:D 4.77425e-05
34 *3567:A *376:16 0.00014391
35 *215:12 *376:34 0
36 *226:10 *3138:A1 0
37 *278:10 *376:24 4.75151e-05
38 *280:14 *376:34 0.000546231
39 *294:26 *376:34 0.000229222
40 *326:40 *3138:A1 0.00017625
41 *363:10 *376:12 0.000909705
42 *363:18 *376:12 0.0053642
43 *363:18 *376:24 0
44 *366:60 *376:34 0
*RES
1 *3303:Q *376:10 43.3578 
2 *376:10 *376:12 30.7558 
3 *376:12 *376:16 20.9682 
4 *376:16 *376:24 42.5544 
5 *376:24 *376:34 45.2221 
6 *376:34 *3139:A0 25.2942 
7 *376:16 *3332:D 22.1836 
8 *376:10 *3138:A1 45.0779 
*END

*D_NET *377 0.00822924
*CONN
*I *3333:D I *D sg13g2_dfrbpq_1
*I *3140:A0 I *D sg13g2_mux2_1
*I *3139:A1 I *D sg13g2_mux2_1
*I *3304:Q O *D sg13g2_dfrbpq_1
*CAP
1 *3333:D 0.000580715
2 *3140:A0 9.33429e-05
3 *3139:A1 0
4 *3304:Q 0.00039975
5 *377:31 0.00165027
6 *377:14 0.00125519
7 *377:10 0.000678728
8 *377:10 *606:20 0.000443022
9 *377:10 *612:18 0
10 *377:10 *612:20 0
11 *377:14 *3306:RESET_B 0.000498742
12 *377:31 *3141:A0 8.00842e-05
13 *377:31 *3306:RESET_B 0.000134271
14 *377:31 *379:37 1.54008e-05
15 *377:31 *380:18 0
16 *377:31 *622:20 0.00020815
17 uio_out[3] *3333:D 0
18 *3129:A1 *3333:D 0
19 *3139:A0 *377:14 0.000498847
20 *29:24 *3333:D 0.000824547
21 *217:12 *3333:D 0.000111876
22 *228:8 *3333:D 0
23 *229:10 *377:31 0.000175721
24 *238:10 *3333:D 0
25 *355:25 *377:10 4.75151e-05
26 *366:27 *3333:D 0.000533078
27 *366:27 *377:31 0
28 *366:46 *377:31 0
*RES
1 *3304:Q *377:10 43.6359 
2 *377:10 *377:14 23.3475 
3 *377:14 *3139:A1 20 
4 *377:14 *377:31 29.0434 
5 *377:31 *3140:A0 40.5974 
6 *377:31 *3333:D 46.6023 
*END

*D_NET *378 0.00646045
*CONN
*I *3032:A0 I *D sg13g2_mux2_1
*I *3031:A1 I *D sg13g2_mux2_1
*I *3628:f_clk1_divider[1] I *D multimode_dll
*I *3196:Q O *D sg13g2_dfrbpq_1
*CAP
1 *3032:A0 0.000381087
2 *3031:A1 0.000290513
3 *3628:f_clk1_divider[1] 0.000516331
4 *3196:Q 0
5 *378:10 0.00127319
6 *378:6 0.000847431
7 *3032:A0 *3032:A1 0.000208035
8 *3032:A0 *385:22 0.00023547
9 *3032:A0 *598:82 0
10 *3032:A0 *599:36 0
11 *378:10 *598:82 0
12 *378:10 *599:36 0.00136067
13 *3031:A0 *3031:A1 0.00040137
14 *3031:A0 *3628:f_clk1_divider[1] 0
15 *3196:D *3031:A1 0.000497837
16 *3196:D *3628:f_clk1_divider[1] 0
17 *3628:f_clk1_divider[0] *3628:f_clk1_divider[1] 0
18 *120:10 *3032:A0 0.000448515
*RES
1 *3196:Q *378:6 40 
2 *378:6 *378:10 26.283 
3 *378:10 *3628:f_clk1_divider[1] 4.6556 
4 *378:10 *3031:A1 23.3475 
5 *378:6 *3032:A0 44.5114 
*END

*D_NET *379 0.00846925
*CONN
*I *3140:A1 I *D sg13g2_mux2_1
*I *3141:A0 I *D sg13g2_mux2_1
*I *3576:A I *D sg13g2_dlygate4sd3_1
*I *3305:Q O *D sg13g2_dfrbpq_1
*CAP
1 *3140:A1 0
2 *3141:A0 0.000688625
3 *3576:A 0.000458881
4 *3305:Q 0.000220736
5 *379:37 0.000917781
6 *379:20 0.000950048
7 *379:8 0.000941059
8 *3141:A0 *380:18 0.00020837
9 *3141:A0 *514:30 8.02269e-05
10 *379:8 *3305:RESET_B 0.000365562
11 *379:8 *573:20 0.0004931
12 *379:8 *579:44 0.000181681
13 *379:8 *615:33 0.000233795
14 *379:20 *3305:RESET_B 0.00038373
15 *379:20 *515:22 0.000241725
16 *379:20 *557:8 0
17 *379:20 *573:20 0.000435266
18 *379:20 *609:56 0.000127802
19 uio_out[3] *379:20 0
20 uio_out[4] *379:8 0
21 uio_out[4] *379:20 0
22 *3166:A *3576:A 0.000629331
23 *3166:B *3576:A 0.000145105
24 *3306:D *3141:A0 8.02269e-05
25 *25:34 *379:20 0.000124859
26 *26:18 *379:20 0
27 *364:22 *3141:A0 0.000465852
28 *364:22 *379:37 0
29 *366:27 *379:37 0
30 *377:31 *3141:A0 8.00842e-05
31 *377:31 *379:37 1.54008e-05
*RES
1 *3305:Q *379:8 43.5638 
2 *379:8 *379:20 45.6032 
3 *379:20 *3576:A 44.7303 
4 *379:8 *379:37 22.0497 
5 *379:37 *3141:A0 26.6126 
6 *379:37 *3140:A1 20 
*END

*D_NET *380 0.0106438
*CONN
*I *3335:D I *D sg13g2_dfrbpq_1
*I *3141:A1 I *D sg13g2_mux2_1
*I *3142:A0 I *D sg13g2_mux2_1
*I *3306:Q O *D sg13g2_dfrbpq_1
*CAP
1 *3335:D 0
2 *3141:A1 0
3 *3142:A0 0.000602469
4 *3306:Q 0.000394594
5 *380:66 0.000276662
6 *380:38 0.00140225
7 *380:30 0.00117223
8 *380:18 0.000737637
9 *380:12 0.00103645
10 *3142:A0 *3142:A1 1.54008e-05
11 *3142:A0 *3307:RESET_B 0
12 *3142:A0 *3336:RESET_B 0
13 *3142:A0 *3336:D 0
14 *3142:A0 *512:22 0.000111568
15 *3142:A0 *571:18 2.21754e-05
16 *3142:A0 *585:42 0
17 *380:12 *572:14 0.000158528
18 *380:12 *618:49 0.000125294
19 *380:18 *572:14 0.000493095
20 *380:18 *622:20 8.01392e-05
21 *380:30 *3139:S 0.000208293
22 *380:30 *514:30 0.000273179
23 *380:30 *622:20 0.000175836
24 *380:38 *513:10 0
25 *380:38 *556:12 0
26 *380:38 *561:48 0.00142244
27 *380:38 *608:82 0
28 uio_out[0] *380:12 0
29 uio_out[1] *380:12 0
30 uio_out[1] *380:18 0
31 uio_out[1] *380:66 0
32 uio_out[2] *380:66 0
33 uo_out[2] *380:38 7.30101e-05
34 *3141:A0 *380:18 0.00020837
35 *3158:A *3142:A0 0.000143351
36 *29:24 *380:66 0.00037062
37 *30:16 *3142:A0 0.000132825
38 *30:20 *380:38 0.000636902
39 *39:34 *380:66 0.000370478
40 *377:31 *380:18 0
*RES
1 *3306:Q *380:12 43.9861 
2 *380:12 *380:18 23.9449 
3 *380:18 *380:30 43.7183 
4 *380:30 *380:38 49.7541 
5 *380:38 *3142:A0 26.1347 
6 *380:18 *3141:A1 20 
7 *380:12 *380:66 43.0797 
8 *380:66 *3335:D 40 
*END

*D_NET *381 0.0019337
*CONN
*I *3565:A I *D sg13g2_dlygate4sd3_1
*I *3143:A0 I *D sg13g2_mux2_1
*I *3142:A1 I *D sg13g2_mux2_1
*I *3307:Q O *D sg13g2_dfrbpq_1
*CAP
1 *3565:A 0.000117174
2 *3143:A0 0.000140274
3 *3142:A1 0.000367654
4 *3307:Q 0
5 *381:10 0.00068676
6 *381:6 0.000296006
7 *3142:A1 *3307:RESET_B 0
8 *3142:A1 *3336:D 0
9 *3142:A1 *537:8 0
10 *3142:A1 *585:48 0
11 *3143:A0 *3336:D 0
12 *3143:A0 *585:42 0
13 *3565:A *537:8 0.00012874
14 *381:10 *382:12 0
15 *381:10 *537:8 0
16 uo_out[0] *3142:A1 0
17 *3142:A0 *3142:A1 1.54008e-05
18 *3308:D *3143:A0 0
19 *230:10 *3142:A1 0.000181694
20 *230:10 *3143:A0 0
*RES
1 *3307:Q *381:6 40 
2 *381:6 *381:10 1.9055 
3 *381:10 *3142:A1 43.7286 
4 *381:10 *3143:A0 41.4008 
5 *381:6 *3565:A 41.3493 
*END

*D_NET *382 0.00327334
*CONN
*I *3144:A0 I *D sg13g2_mux2_1
*I *3580:A I *D sg13g2_dlygate4sd3_1
*I *3143:A1 I *D sg13g2_mux2_1
*I *3308:Q O *D sg13g2_dfrbpq_1
*CAP
1 *3144:A0 3.79457e-05
2 *3580:A 0
3 *3143:A1 0
4 *3308:Q 0
5 *382:27 0.000179139
6 *382:19 0.000373036
7 *382:12 0.000779051
8 *382:4 0.000935003
9 *3144:A0 *3144:S 0
10 *382:12 *611:14 0
11 *382:27 *3144:A1 0.000287672
12 *382:27 *612:107 1.54008e-05
13 uo_out[0] *382:27 0
14 *3309:D *3144:A0 0
15 *44:12 *382:12 0
16 *339:50 *382:12 0.000666092
17 *381:10 *382:12 0
*RES
1 *3308:Q *382:4 20 
2 *382:4 *382:12 47.8383 
3 *382:12 *3143:A1 20 
4 *382:4 *382:19 1.1845 
5 *382:19 *382:27 41.9055 
6 *382:27 *3580:A 20 
7 *382:19 *3144:A0 20.3193 
*END

*D_NET *383 0.00274528
*CONN
*I *3145:A0 I *D sg13g2_mux2_1
*I *3563:A I *D sg13g2_dlygate4sd3_1
*I *3144:A1 I *D sg13g2_mux2_1
*I *3309:Q O *D sg13g2_dfrbpq_1
*CAP
1 *3145:A0 4.41697e-05
2 *3563:A 0
3 *3144:A1 0.00036577
4 *3309:Q 0.000194207
5 *383:12 0.000576941
6 *383:10 0.000449548
7 *3144:A1 *512:10 0
8 *3144:A1 *575:18 7.57164e-05
9 *3145:A0 *575:18 0.000128663
10 *3145:A0 *613:16 0
11 *383:10 *3145:S 1.54008e-05
12 *383:10 *3338:D 0
13 *383:12 *575:18 0.000607195
14 uo_out[0] *3144:A1 0
15 uo_out[0] *383:12 0
16 *3310:D *383:10 0
17 *382:27 *3144:A1 0.000287672
*RES
1 *3309:Q *383:10 41.0118 
2 *383:10 *383:12 2.8222 
3 *383:12 *3144:A1 44.0582 
4 *383:12 *3563:A 40 
5 *383:10 *3145:A0 40.5974 
*END

*D_NET *384 0.00384919
*CONN
*I *3145:A1 I *D sg13g2_mux2_1
*I *3560:A I *D sg13g2_dlygate4sd3_1
*I *3310:Q O *D sg13g2_dfrbpq_1
*CAP
1 *3145:A1 0
2 *3560:A 0.000198629
3 *3310:Q 0.00063657
4 *384:26 0.000437941
5 *3560:A *3339:D 0.000143791
6 *3560:A *3614:A 0
7 *384:26 *575:18 0
8 *384:26 *613:16 0.000234726
9 *384:26 *613:42 0.000341949
10 *384:26 *613:55 0.000607939
11 *43:8 *3560:A 0
12 *43:8 *384:26 0
13 *44:12 *384:26 0
14 *328:32 *384:26 0.000929036
15 *328:43 *384:26 0.000318607
16 *339:46 *384:26 0
*RES
1 *3310:Q *3560:A 42.3175 
2 *3310:Q *384:26 47.4675 
3 *384:26 *3145:A1 40 
*END

*D_NET *385 0.0802943
*CONN
*I *3032:A1 I *D sg13g2_mux2_1
*I *3628:f_clk1_divider[2] I *D multimode_dll
*I *3033:A0 I *D sg13g2_mux2_1
*I *3197:Q O *D sg13g2_dfrbpq_1
*CAP
1 *3032:A1 0.000144596
2 *3628:f_clk1_divider[2] 0.000118118
3 *3033:A0 0
4 *3197:Q 0.000474028
5 *385:94 0.000774039
6 *385:86 0.00209969
7 *385:82 0.00418401
8 *385:78 0.00343657
9 *385:72 0.00123789
10 *385:64 0.00547348
11 *385:62 0.00478833
12 *385:56 0.00128219
13 *385:52 0.00141902
14 *385:44 0.000730937
15 *385:40 0.00146035
16 *385:34 0.0031952
17 *385:28 0.00375902
18 *385:22 0.00232291
19 *385:10 0.00141882
20 *3628:f_clk1_divider[2] *3628:f_clk1_divider[4] 0
21 *385:10 *426:55 0.000395066
22 *385:10 *599:36 0
23 *385:10 *599:42 0
24 *385:22 *426:22 0
25 *385:22 *426:55 0
26 *385:22 *500:15 0
27 *385:22 *598:82 7.52158e-05
28 *385:22 *598:86 0.000176279
29 *385:22 *598:97 3.24294e-05
30 *385:22 *641:130 0.000342034
31 *385:28 *3021:A1 0.00050146
32 *385:28 *393:28 0.000448427
33 *385:28 *415:36 0.000980408
34 *385:28 *426:22 0.00109726
35 *385:28 *641:118 0
36 *385:34 *435:22 0
37 *385:34 *499:17 0
38 *385:34 *530:14 0.00292593
39 *385:34 *599:36 0
40 *385:34 *600:8 0
41 *385:34 *623:18 0
42 *385:34 *641:112 0.000979709
43 *385:40 *530:14 0
44 *385:40 *623:18 0.00310943
45 *385:40 *630:63 0.000661265
46 *385:40 *666:43 0.00108192
47 *385:44 *417:18 0.00242678
48 *385:44 *522:20 0
49 *385:52 *623:36 0.000647442
50 *385:52 *639:22 0.000647442
51 *385:56 *417:57 0.00192237
52 *385:72 *3377:A 0.000112611
53 *385:72 *3603:A 0
54 *385:72 *422:56 0.000179649
55 *385:72 *424:8 0
56 *385:72 *424:20 0
57 *385:72 *424:31 0
58 *385:72 *439:22 0.0010526
59 *385:72 *566:20 0.000209681
60 *385:72 *590:18 0
61 *385:78 *3067:A0 0.0010254
62 *385:78 *590:36 0.000176516
63 *385:86 *599:81 0
64 *385:86 *651:15 0.00103571
65 *385:94 *3628:clk1_phase_sel[2] 0.000126325
66 *385:94 *3628:f_clk1_divider[3] 0
67 *385:94 *3628:f_clk1_divider[4] 0
68 *385:94 *599:81 0.00161736
69 *3032:A0 *3032:A1 0.000208035
70 *3032:A0 *385:22 0.00023547
71 *3628:f_osc_multiply_factor[0] *385:28 0.000987814
72 *7:35 *385:78 0
73 *7:37 *385:82 0.00712967
74 *7:47 *385:82 0
75 *7:47 *385:86 0
76 *36:22 *385:64 0.000707772
77 *112:14 *385:28 0.00034056
78 *120:10 *385:10 0
79 *120:10 *385:22 0
80 *167:16 *385:34 7.33256e-05
81 *240:18 *385:44 0.00242657
82 *240:22 *385:64 0
83 *242:22 *385:64 0
84 *242:28 *385:72 0
85 *262:26 *385:40 0
86 *284:9 *385:86 0.000876202
87 *290:13 *385:22 0
88 *290:35 *385:22 0
89 *290:35 *385:28 0
90 *290:41 *385:28 0
91 *290:43 *385:34 0
92 *291:28 *385:22 0
93 *298:112 *385:22 0.000304948
94 *308:16 *385:56 0.000733134
95 *308:27 *385:56 0.00126746
96 *323:10 *385:34 0
97 *339:12 *385:52 7.81165e-05
98 *346:10 *385:64 0.00254025
99 *352:22 *385:40 7.90769e-05
*RES
1 *3197:Q *385:10 44.3775 
2 *385:10 *385:22 48.0134 
3 *385:22 *385:28 39.2095 
4 *385:28 *385:34 43.9063 
5 *385:34 *385:40 34.9762 
6 *385:40 *385:44 31.7214 
7 *385:44 *385:52 43.605 
8 *385:52 *385:56 33.7299 
9 *385:56 *385:62 40.8446 
10 *385:62 *385:64 47.2564 
11 *385:64 *385:72 48.6108 
12 *385:72 *385:78 25.3663 
13 *385:78 *385:82 44.9183 
14 *385:82 *385:86 37.6542 
15 *385:86 *385:94 49.1361 
16 *385:94 *3033:A0 20 
17 *385:86 *3628:f_clk1_divider[2] 1.16132 
18 *385:10 *3032:A1 41.4008 
*END

*D_NET *386 0.00430287
*CONN
*I *3033:A1 I *D sg13g2_mux2_1
*I *3628:f_clk1_divider[3] I *D multimode_dll
*I *3034:A0 I *D sg13g2_mux2_1
*I *3198:Q O *D sg13g2_dfrbpq_1
*CAP
1 *3033:A1 3.34386e-05
2 *3628:f_clk1_divider[3] 0.000882375
3 *3034:A0 0.000220178
4 *3198:Q 0
5 *386:19 0.00167612
6 *386:4 0.000980483
7 *3033:A1 *3628:clk0_phase_sel[0] 0
8 *3034:A0 *3034:A1 7.99721e-05
9 *3034:A0 *596:10 0.00030513
10 *3628:f_clk1_divider[3] *3628:clk1_phase_sel[1] 0
11 *3628:f_clk1_divider[3] *3628:clk1_phase_sel[2] 0.000125175
12 *3628:f_clk1_divider[3] *3628:clk1_phase_sel[4] 0
13 *3628:f_clk1_divider[3] *3628:f_clk1_divider[4] 0
14 *3628:f_clk1_divider[3] *599:81 0
15 *386:19 *3628:clk0_phase_sel[1] 0
16 *386:19 *596:10 0
17 *386:19 *599:77 0
18 *386:19 *599:81 0
19 *284:9 *3628:f_clk1_divider[3] 0
20 *284:9 *386:19 0
21 *385:94 *3628:f_clk1_divider[3] 0
*RES
1 *3198:Q *386:4 20 
2 *386:4 *3034:A0 22.3999 
3 *386:4 *386:19 28.0237 
4 *386:19 *3628:f_clk1_divider[3] 28.4383 
5 *386:19 *3033:A1 40.3193 
*END

*D_NET *387 0.0150462
*CONN
*I *3035:A0 I *D sg13g2_mux2_1
*I *3034:A1 I *D sg13g2_mux2_1
*I *3628:f_clk1_divider[4] I *D multimode_dll
*I *3199:Q O *D sg13g2_dfrbpq_1
*CAP
1 *3035:A0 0.000238443
2 *3034:A1 5.37616e-05
3 *3628:f_clk1_divider[4] 0.00163671
4 *3199:Q 0
5 *387:39 0.0011049
6 *387:10 0.00216935
7 *387:4 0.00134534
8 *3034:A1 *398:31 0
9 *3035:A0 *411:10 0
10 *3628:f_clk1_divider[4] *3050:S 0.000497566
11 *3628:f_clk1_divider[4] *403:8 0.00161989
12 *3628:f_clk1_divider[4] *634:54 0.000180682
13 *3628:f_clk1_divider[4] *634:58 0
14 *3628:f_clk1_divider[4] *637:40 0.000286322
15 *3628:f_clk1_divider[4] *652:18 0
16 *3628:f_clk1_divider[4] *652:33 0
17 *387:10 *3055:A1 0
18 *387:10 *398:31 0.000499799
19 *387:10 *412:18 0
20 *387:39 *3628:bias 0
21 *387:39 *411:10 0
22 *387:39 *411:14 0
23 *3034:A0 *3034:A1 7.99721e-05
24 *3200:D *3035:A0 0
25 *3215:D *3628:f_clk1_divider[4] 0.000240463
26 *3628:f_clk1_divider[2] *3628:f_clk1_divider[4] 0
27 *3628:f_clk1_divider[3] *3628:f_clk1_divider[4] 0
28 *282:19 *387:10 0.000393736
29 *283:32 *3628:f_clk1_divider[4] 0.000820896
30 *283:32 *387:10 0.00145687
31 *326:10 *387:39 0.00242149
32 *329:10 *3628:f_clk1_divider[4] 0
33 *329:10 *387:10 0
34 *385:94 *3628:f_clk1_divider[4] 0
*RES
1 *3199:Q *387:4 20 
2 *387:4 *387:10 27.5293 
3 *387:10 *3628:f_clk1_divider[4] 38.7331 
4 *387:10 *3034:A1 40.5356 
5 *387:4 *387:39 31.9789 
6 *387:39 *3035:A0 42.0497 
*END

*D_NET *388 0.003981
*CONN
*I *3628:f_clk2_divider[0] I *D multimode_dll
*I *3035:A1 I *D sg13g2_mux2_1
*I *3036:A0 I *D sg13g2_mux2_1
*I *3200:Q O *D sg13g2_dfrbpq_1
*CAP
1 *3628:f_clk2_divider[0] 0.000340878
2 *3035:A1 0
3 *3036:A0 0.000299397
4 *3200:Q 0
5 *388:21 0.000468444
6 *388:15 0.00100574
7 *388:4 0.000495819
8 *3036:A0 *389:22 0.000175693
9 *3628:f_clk2_divider[0] *3628:f_clk2_divider[4] 0
10 *388:15 *3628:f_clk2_divider[4] 0
11 *388:21 *599:75 0.00119502
12 *282:36 *388:21 0
*RES
1 *3200:Q *388:4 20 
2 *388:4 *3036:A0 22.8943 
3 *388:4 *388:15 2.0497 
4 *388:15 *388:21 45.5414 
5 *388:21 *3035:A1 20 
6 *388:15 *3628:f_clk2_divider[0] 3.57667 
*END

*D_NET *389 0.00557363
*CONN
*I *3037:A0 I *D sg13g2_mux2_1
*I *3628:f_clk2_divider[1] I *D multimode_dll
*I *3036:A1 I *D sg13g2_mux2_1
*I *3201:Q O *D sg13g2_dfrbpq_1
*CAP
1 *3037:A0 0.000199787
2 *3628:f_clk2_divider[1] 0.000566849
3 *3036:A1 0
4 *3201:Q 6.2646e-05
5 *389:22 0.000334944
6 *389:12 0.00136538
7 *389:8 0.000726017
8 *3037:A0 *390:18 1.54008e-05
9 *3037:A0 *605:83 0
10 *3628:f_clk2_divider[1] *3628:f_clk2_divider[3] 0
11 *3628:f_clk2_divider[1] *3628:f_clk2_divider[4] 0
12 *389:8 *599:75 0
13 *389:12 *599:75 0
14 *389:22 *3628:f_clk2_divider[3] 0
15 *3036:A0 *389:22 0.000175693
16 *3202:D *3037:A0 0
17 *326:10 *389:8 0.000213787
18 *326:10 *389:12 0.00162475
19 *330:22 *389:22 0.000288377
*RES
1 *3201:Q *389:8 41.0918 
2 *389:8 *389:12 27.519 
3 *389:12 *389:22 43.2754 
4 *389:22 *3036:A1 20 
5 *389:12 *3628:f_clk2_divider[1] 4.78177 
6 *389:8 *3037:A0 42.0497 
*END

*D_NET *390 0.00625583
*CONN
*I *3038:A0 I *D sg13g2_mux2_1
*I *3628:f_clk2_divider[2] I *D multimode_dll
*I *3037:A1 I *D sg13g2_mux2_1
*I *3202:Q O *D sg13g2_dfrbpq_1
*CAP
1 *3038:A0 0
2 *3628:f_clk2_divider[2] 8.16005e-05
3 *3037:A1 0
4 *3202:Q 0.000254918
5 *390:29 0.00096987
6 *390:18 0.00114897
7 *390:12 0.000515617
8 *3628:f_clk2_divider[2] *3628:f_clk2_divider[3] 0
9 *390:12 *3038:A1 0
10 *390:12 *599:75 0.000319437
11 *390:12 *605:75 0.00034162
12 *390:18 *599:75 0.00130482
13 *390:18 *605:75 0.000159926
14 *390:18 *605:77 0.00114365
15 *3037:A0 *390:18 1.54008e-05
16 *3203:D *390:12 0
17 *282:36 *390:29 0
*RES
1 *3202:Q *390:12 43.5535 
2 *390:12 *390:18 26.3551 
3 *390:18 *3037:A1 20 
4 *390:18 *390:29 30.4957 
5 *390:29 *3628:f_clk2_divider[2] 20.7751 
6 *390:12 *3038:A0 40 
*END

*D_NET *391 0.0129818
*CONN
*I *3038:A1 I *D sg13g2_mux2_1
*I *3039:A0 I *D sg13g2_mux2_1
*I *3628:f_clk2_divider[3] I *D multimode_dll
*I *3203:Q O *D sg13g2_dfrbpq_1
*CAP
1 *3038:A1 0.000333672
2 *3039:A0 0.000129527
3 *3628:f_clk2_divider[3] 0.00103793
4 *3203:Q 0.000378474
5 *391:18 0.0017274
6 *391:10 0.00127209
7 *3039:A0 *3039:A1 1.54008e-05
8 *3628:f_clk2_divider[3] *411:10 0
9 *391:10 *646:69 0.00113205
10 *391:10 *646:71 0.000668889
11 *391:18 *646:71 0.00080457
12 *391:18 *646:77 0.000399086
13 *3200:CLK *3628:f_clk2_divider[3] 0
14 *3203:D *3038:A1 0
15 *3628:f_clk2_divider[1] *3628:f_clk2_divider[3] 0
16 *3628:f_clk2_divider[2] *3628:f_clk2_divider[3] 0
17 *283:34 *3628:f_clk2_divider[3] 0.00140748
18 *283:34 *391:10 0.00176375
19 *283:34 *391:18 0.00124906
20 *330:16 *3628:f_clk2_divider[3] 0
21 *330:16 *391:18 0
22 *330:22 *3628:f_clk2_divider[3] 0.000662388
23 *389:22 *3628:f_clk2_divider[3] 0
24 *390:12 *3038:A1 0
*RES
1 *3203:Q *391:10 48.7962 
2 *391:10 *391:18 8.755 
3 *391:18 *3628:f_clk2_divider[3] 32.3935 
4 *391:18 *3039:A0 40.9682 
5 *391:10 *3038:A1 43.0432 
*END

*D_NET *392 0.00639153
*CONN
*I *3039:A1 I *D sg13g2_mux2_1
*I *3628:f_clk2_divider[4] I *D multimode_dll
*I *3040:A0 I *D sg13g2_mux2_1
*I *3204:Q O *D sg13g2_dfrbpq_1
*CAP
1 *3039:A1 9.77658e-05
2 *3628:f_clk2_divider[4] 0.000939364
3 *3040:A0 0.000337786
4 *3204:Q 0.000767184
5 *392:14 0.00181215
6 *392:10 0.00139995
7 *3039:A1 *646:83 0
8 *3040:A0 *3036:S 0
9 *3040:A0 *3040:A1 1.54285e-05
10 *3040:A0 *3205:RESET_B 0
11 *3628:f_clk2_divider[4] *3036:S 4.47065e-05
12 *392:14 *3201:RESET_B 0.000539073
13 *392:14 *635:73 0.000182121
14 *3039:A0 *3039:A1 1.54008e-05
15 *3201:D *3628:f_clk2_divider[4] 0
16 *3204:D *3039:A1 0
17 *3205:D *3040:A0 0.000240607
18 *3628:f_clk2_divider[0] *3628:f_clk2_divider[4] 0
19 *3628:f_clk2_divider[1] *3628:f_clk2_divider[4] 0
20 *329:10 *392:10 0
21 *329:10 *392:14 0
22 *334:61 *3039:A1 0
23 *337:22 *392:10 0
24 *337:24 *392:10 0
25 *337:24 *392:14 0
26 *388:15 *3628:f_clk2_divider[4] 0
*RES
1 *3204:Q *392:10 47.8383 
2 *392:10 *392:14 26.283 
3 *392:14 *3040:A0 23.1312 
4 *392:14 *3628:f_clk2_divider[4] 8.50008 
5 *392:10 *3039:A1 40.9682 
*END

*D_NET *393 0.00530676
*CONN
*I *3022:A0 I *D sg13g2_mux2_1
*I *3021:A1 I *D sg13g2_mux2_1
*I *3628:f_osc_multiply_factor[1] I *D multimode_dll
*I *3186:Q O *D sg13g2_dfrbpq_1
*CAP
1 *3022:A0 8.78912e-05
2 *3021:A1 0.000400136
3 *3628:f_osc_multiply_factor[1] 0.000575005
4 *3186:Q 2.62653e-05
5 *393:28 0.000834838
6 *393:6 0.00094808
7 *3021:A1 *3358:D 7.99721e-05
8 *3021:A1 *598:25 0.000181192
9 *3022:A0 *404:37 1.54282e-05
10 *3628:f_osc_multiply_factor[1] *3187:RESET_B 0.000241398
11 *3628:f_osc_multiply_factor[1] *3628:f_osc_multiply_factor[4] 0
12 *3628:f_osc_multiply_factor[1] *404:25 7.51285e-05
13 *3628:f_osc_multiply_factor[1] *599:36 0.00012816
14 *393:28 *3023:S 0.000112198
15 *3021:A0 *3021:A1 8.01642e-05
16 *3187:D *393:6 4.77074e-05
17 *3187:D *393:28 9.58364e-05
18 *3628:f_osc_multiply_factor[0] *3628:f_osc_multiply_factor[1] 0
19 *3628:f_osc_multiply_factor[0] *393:6 4.75151e-05
20 *3628:f_osc_multiply_factor[0] *393:28 0.000304832
21 *290:41 *3021:A1 0
22 *290:41 *393:28 0
23 *320:14 *3628:f_osc_multiply_factor[1] 7.51285e-05
24 *385:28 *3021:A1 0.00050146
25 *385:28 *393:28 0.000448427
*RES
1 *3186:Q *393:6 20.3193 
2 *393:6 *3628:f_osc_multiply_factor[1] 45.7886 
3 *393:6 *393:28 24.1303 
4 *393:28 *3021:A1 44.3466 
5 *393:28 *3022:A0 40.7519 
*END

*D_NET *394 0.014013
*CONN
*I *3040:A1 I *D sg13g2_mux2_1
*I *3628:clk0_phase_sel[0] I *D multimode_dll
*I *3041:A0 I *D sg13g2_mux2_1
*I *3205:Q O *D sg13g2_dfrbpq_1
*CAP
1 *3040:A1 3.52094e-05
2 *3628:clk0_phase_sel[0] 0.0011108
3 *3041:A0 0
4 *3205:Q 0.000770429
5 *394:31 0.00157327
6 *394:18 0.00209853
7 *394:12 0.00244169
8 *3628:clk0_phase_sel[0] *3628:clk1_phase_sel[0] 0
9 *3628:clk0_phase_sel[0] *594:63 0
10 *3628:clk0_phase_sel[0] *634:71 0
11 *394:12 *3115:A1 0.000127744
12 *394:12 *3281:RESET_B 0.000287017
13 *394:12 *476:8 7.49652e-05
14 *394:12 *477:25 0
15 *394:12 *605:89 0
16 *394:18 *3044:S 0.000851002
17 *394:18 *3117:A0 0
18 *394:18 *396:8 0
19 *394:18 *477:25 0
20 *394:18 *596:47 0.000447685
21 *394:18 *596:56 0.000265488
22 *394:18 *597:23 0.00055508
23 *394:18 *597:32 0.00058534
24 *394:18 *597:43 0.00021346
25 *394:18 *597:54 0.000797467
26 *394:18 *635:33 0
27 *394:18 *636:26 4.77425e-05
28 *394:18 *636:39 0
29 *394:31 *480:12 0
30 *394:31 *636:26 9.67976e-05
31 *3033:A1 *3628:clk0_phase_sel[0] 0
32 *3040:A0 *3040:A1 1.54285e-05
33 *3198:D *3628:clk0_phase_sel[0] 0
34 *3281:CLK *394:12 0
35 *128:8 *394:12 0
36 *128:8 *394:18 0.000128663
37 *129:8 *394:18 0.000235142
38 *207:8 *394:18 0
39 *283:9 *3628:clk0_phase_sel[0] 0
40 *327:16 *394:12 0
41 *327:16 *394:18 0
42 *327:16 *394:31 0.000981323
43 *329:16 *3628:clk0_phase_sel[0] 0
44 *330:39 *3628:clk0_phase_sel[0] 0.000272746
45 *330:57 *3628:clk0_phase_sel[0] 0
*RES
1 *3205:Q *394:12 47.5087 
2 *394:12 *394:18 42.4231 
3 *394:18 *3041:A0 20 
4 *394:18 *394:31 45.3045 
5 *394:31 *3628:clk0_phase_sel[0] 10.9618 
6 *394:12 *3040:A1 40.3193 
*END

*D_NET *395 0.00621522
*CONN
*I *3041:A1 I *D sg13g2_mux2_1
*I *3042:A0 I *D sg13g2_mux2_1
*I *3628:clk0_phase_sel[1] I *D multimode_dll
*I *3206:Q O *D sg13g2_dfrbpq_1
*CAP
1 *3041:A1 0
2 *3042:A0 3.10612e-05
3 *3628:clk0_phase_sel[1] 0.000855021
4 *3206:Q 0.000156555
5 *395:39 0.000105923
6 *395:26 0.000330057
7 *395:8 0.00120465
8 *3042:A0 *3042:A1 1.54008e-05
9 *3628:clk0_phase_sel[1] *3628:clk0_phase_sel[3] 0.000615694
10 *3628:clk0_phase_sel[1] *397:20 0.000498485
11 *3628:clk0_phase_sel[1] *653:22 0.000181608
12 *395:8 *409:12 0
13 *395:8 *653:22 0.000479035
14 *395:26 *596:64 0.000145153
15 *395:39 *596:47 0.000394653
16 *395:39 *596:56 0.000181608
17 *3210:CLK *3042:A0 4.77425e-05
18 *3210:CLK *395:26 0.000290335
19 *327:16 *395:39 0.000554077
20 *330:22 *3628:clk0_phase_sel[1] 0
21 *330:33 *3628:clk0_phase_sel[1] 0.00012816
22 *386:19 *3628:clk0_phase_sel[1] 0
*RES
1 *3206:Q *395:8 42.3278 
2 *395:8 *3628:clk0_phase_sel[1] 29.3035 
3 *395:8 *395:26 22.0497 
4 *395:26 *3042:A0 20.3193 
5 *395:26 *395:39 42.575 
6 *395:39 *3041:A1 20 
*END

*D_NET *396 0.00612313
*CONN
*I *3628:clk0_phase_sel[2] I *D multimode_dll
*I *3042:A1 I *D sg13g2_mux2_1
*I *3043:A0 I *D sg13g2_mux2_1
*I *3207:Q O *D sg13g2_dfrbpq_1
*CAP
1 *3628:clk0_phase_sel[2] 0.00121892
2 *3042:A1 0.000143524
3 *3043:A0 0.000476671
4 *3207:Q 0.000484927
5 *396:25 0.00153498
6 *396:10 0.000649211
7 *396:8 0.000484927
8 *3042:A1 *596:64 1.54008e-05
9 *3043:A0 *3043:A1 8.00842e-05
10 *3043:A0 *3208:RESET_B 0
11 *3043:A0 *397:20 0
12 *3043:A0 *399:10 0
13 *3043:A0 *636:48 0
14 *3628:clk0_phase_sel[2] *3057:A0 0
15 *3628:clk0_phase_sel[2] *3628:bias 0
16 *3628:clk0_phase_sel[2] *3628:mode_xor[1] 0
17 *3628:clk0_phase_sel[2] *3628:mode_xor[2] 0.000272673
18 *3628:clk0_phase_sel[2] *596:64 0
19 *3628:clk0_phase_sel[2] *636:48 0
20 *396:8 *636:39 0
21 *396:25 *636:48 0
22 *3042:A0 *3042:A1 1.54008e-05
23 *3199:CLK *3628:clk0_phase_sel[2] 0.0006178
24 *3207:D *3042:A1 0.000128618
25 *3207:D *3043:A0 0
26 *3207:D *396:25 0
27 *3207:CLK *3628:clk0_phase_sel[2] 0
28 *3207:CLK *396:25 0
29 *3210:CLK *3042:A1 0
30 *3210:CLK *3043:A0 0
31 *3210:CLK *396:25 0
32 *3222:D *3628:clk0_phase_sel[2] 0
33 *324:12 *396:8 0
34 *394:18 *396:8 0
*RES
1 *3207:Q *396:8 45.7886 
2 *396:8 *396:10 20 
3 *396:10 *3043:A0 23.2287 
4 *396:10 *396:25 1.25 
5 *396:25 *3042:A1 22.0497 
6 *396:25 *3628:clk0_phase_sel[2] 12.048 
*END

*D_NET *397 0.00765142
*CONN
*I *3044:A0 I *D sg13g2_mux2_1
*I *3043:A1 I *D sg13g2_mux2_1
*I *3628:clk0_phase_sel[3] I *D multimode_dll
*I *3208:Q O *D sg13g2_dfrbpq_1
*CAP
1 *3044:A0 0.000201508
2 *3043:A1 5.03155e-05
3 *3628:clk0_phase_sel[3] 0.00055419
4 *3208:Q 0.000266169
5 *397:20 0.00189023
6 *397:10 0.00178147
7 *397:8 0.000862793
8 *3044:A0 *3208:RESET_B 0
9 *3628:clk0_phase_sel[3] *3628:clk0_phase_sel[4] 0
10 *3628:clk0_phase_sel[3] *637:55 0.000128248
11 *397:10 *399:10 0
12 *397:20 *3045:A0 0
13 *397:20 *3199:RESET_B 0.00030506
14 *397:20 *398:31 0
15 *397:20 *399:10 0
16 *397:20 *596:38 0.000289002
17 *3043:A0 *3043:A1 8.00842e-05
18 *3043:A0 *397:20 0
19 *3208:CLK *3044:A0 0
20 *3210:CLK *397:20 0
21 *3628:clk0_phase_sel[1] *3628:clk0_phase_sel[3] 0.000615694
22 *3628:clk0_phase_sel[1] *397:20 0.000498485
23 *325:16 *397:8 0
24 *325:16 *397:10 0
25 *325:16 *397:20 0
26 *326:10 *3628:clk0_phase_sel[3] 0.00012816
*RES
1 *3208:Q *397:8 43.3166 
2 *397:8 *397:10 4.3054 
3 *397:10 *397:20 33.5457 
4 *397:20 *3628:clk0_phase_sel[3] 45.7551 
5 *397:10 *3043:A1 40.5356 
6 *397:8 *3044:A0 41.8334 
*END

*D_NET *398 0.0112161
*CONN
*I *3044:A1 I *D sg13g2_mux2_1
*I *3628:clk0_phase_sel[4] I *D multimode_dll
*I *3045:A0 I *D sg13g2_mux2_1
*I *3209:Q O *D sg13g2_dfrbpq_1
*CAP
1 *3044:A1 0
2 *3628:clk0_phase_sel[4] 0.000686675
3 *3045:A0 0.000289633
4 *3209:Q 0.000590743
5 *398:31 0.00176652
6 *398:14 0.00202353
7 *398:10 0.00124479
8 *3045:A0 *3210:RESET_B 4.77702e-05
9 *3045:A0 *596:23 0
10 *3045:A0 *636:26 0
11 *3628:clk0_phase_sel[4] *3057:A0 0
12 *3628:clk0_phase_sel[4] *3628:mode_xor[1] 0
13 *398:10 *3119:A0 0.000289003
14 *398:31 *3210:RESET_B 0.000225969
15 *398:31 *636:18 0
16 *398:31 *636:26 0
17 *3034:A1 *398:31 0
18 *3199:D *398:31 0.000144768
19 *3628:clk0_phase_sel[3] *3628:clk0_phase_sel[4] 0
20 *282:9 *3628:clk0_phase_sel[4] 0
21 *324:12 *398:10 0.00162236
22 *324:12 *398:14 0
23 *325:16 *398:10 0
24 *325:16 *398:14 0.00167356
25 *329:10 *398:31 0
26 *330:22 *3628:clk0_phase_sel[4] 0.00011101
27 *387:10 *398:31 0.000499799
28 *397:20 *3045:A0 0
29 *397:20 *398:31 0
*RES
1 *3209:Q *398:10 47.8383 
2 *398:10 *398:14 27.7662 
3 *398:14 *3045:A0 22.9355 
4 *398:14 *398:31 30.4339 
5 *398:31 *3628:clk0_phase_sel[4] 26.2392 
6 *398:10 *3044:A1 40 
*END

*D_NET *399 0.00854426
*CONN
*I *3045:A1 I *D sg13g2_mux2_1
*I *3628:clk1_phase_sel[0] I *D multimode_dll
*I *3046:A0 I *D sg13g2_mux2_1
*I *3210:Q O *D sg13g2_dfrbpq_1
*CAP
1 *3045:A1 0
2 *3628:clk1_phase_sel[0] 0.00176437
3 *3046:A0 0
4 *3210:Q 0.000587077
5 *399:14 0.00240881
6 *399:10 0.00123152
7 *3628:clk1_phase_sel[0] *3046:A1 0.000404266
8 *3628:clk1_phase_sel[0] *3047:A1 0.000144915
9 *3628:clk1_phase_sel[0] *3211:RESET_B 0
10 *3628:clk1_phase_sel[0] *3628:clk1_phase_sel[2] 0
11 *3628:clk1_phase_sel[0] *400:23 0.000315727
12 *3628:clk1_phase_sel[0] *400:38 0
13 *3628:clk1_phase_sel[0] *594:63 0
14 *3628:clk1_phase_sel[0] *634:62 0.000370419
15 *3628:clk1_phase_sel[0] *634:71 0
16 *399:10 *3208:RESET_B 0.000241983
17 *399:10 *596:38 0.000502704
18 *399:14 *596:38 0.000234727
19 *3043:A0 *399:10 0
20 *3211:D *3628:clk1_phase_sel[0] 0.000242213
21 *3212:D *3628:clk1_phase_sel[0] 1.54556e-05
22 *3214:D *3628:clk1_phase_sel[0] 8.00842e-05
23 *3628:clk0_phase_sel[0] *3628:clk1_phase_sel[0] 0
24 *133:8 *399:14 0
25 *325:16 *399:14 0
26 *397:10 *399:10 0
27 *397:20 *399:10 0
*RES
1 *3210:Q *399:10 46.6641 
2 *399:10 *399:14 28.5078 
3 *399:14 *3046:A0 20 
4 *399:14 *3628:clk1_phase_sel[0] 17.8731 
5 *399:10 *3045:A1 40 
*END

*D_NET *400 0.00912473
*CONN
*I *3628:clk1_phase_sel[1] I *D multimode_dll
*I *3047:A0 I *D sg13g2_mux2_1
*I *3046:A1 I *D sg13g2_mux2_1
*I *3211:Q O *D sg13g2_dfrbpq_1
*CAP
1 *3628:clk1_phase_sel[1] 7.29994e-05
2 *3047:A0 0
3 *3046:A1 0.000398129
4 *3211:Q 0.000569384
5 *400:38 0.00135423
6 *400:23 0.0016364
7 *400:10 0.000753297
8 *400:8 0.000569384
9 *3046:A1 *3046:S 0
10 *3628:clk1_phase_sel[1] *651:15 0
11 *400:23 *3046:S 0
12 *400:23 *3047:A1 0.000144915
13 *400:23 *593:58 0
14 *400:23 *593:69 0
15 *400:38 *3047:A1 1.54556e-05
16 *400:38 *3049:A1 4.77425e-05
17 *400:38 *3628:clk1_phase_sel[2] 0.000313772
18 *400:38 *3628:clk1_phase_sel[3] 4.8025e-05
19 *400:38 *402:21 0
20 *400:38 *403:23 0.000466856
21 *400:38 *593:69 0
22 *3213:D *400:38 8.00842e-05
23 *3628:clk1_phase_sel[0] *3046:A1 0.000404266
24 *3628:clk1_phase_sel[0] *400:23 0.000315727
25 *3628:clk1_phase_sel[0] *400:38 0
26 *3628:f_clk1_divider[3] *3628:clk1_phase_sel[1] 0
27 *284:9 *400:38 0.000471309
28 *324:12 *400:8 0.00146276
29 *325:16 *400:8 0
*RES
1 *3211:Q *400:8 46.7774 
2 *400:8 *400:10 20 
3 *400:10 *3046:A1 24.4805 
4 *400:10 *400:23 3.5638 
5 *400:23 *3047:A0 20 
6 *400:23 *400:38 32.8915 
7 *400:38 *3628:clk1_phase_sel[1] 20.5588 
*END

*D_NET *401 0.00589977
*CONN
*I *3047:A1 I *D sg13g2_mux2_1
*I *3628:clk1_phase_sel[2] I *D multimode_dll
*I *3048:A0 I *D sg13g2_mux2_1
*I *3212:Q O *D sg13g2_dfrbpq_1
*CAP
1 *3047:A1 8.03215e-05
2 *3628:clk1_phase_sel[2] 0.000989857
3 *3048:A0 0
4 *3212:Q 0.000668826
5 *401:16 0.00148417
6 *401:10 0.00124346
7 *3628:clk1_phase_sel[2] *3049:S 0.000322325
8 *3628:clk1_phase_sel[2] *3050:A1 0
9 *3628:clk1_phase_sel[2] *3628:clk1_phase_sel[3] 0
10 *3628:clk1_phase_sel[2] *3628:clk1_phase_sel[4] 0.000112426
11 *3628:clk1_phase_sel[2] *402:21 0
12 *3628:clk1_phase_sel[2] *403:23 0
13 *401:10 *596:23 0
14 *401:16 *3049:S 8.00842e-05
15 *401:16 *593:47 0
16 *401:16 *593:58 0
17 *401:16 *593:69 0
18 *3628:clk1_phase_sel[0] *3047:A1 0.000144915
19 *3628:clk1_phase_sel[0] *3628:clk1_phase_sel[2] 0
20 *3628:f_clk1_divider[3] *3628:clk1_phase_sel[2] 0.000125175
21 *327:16 *401:10 0
22 *327:16 *401:16 0
23 *329:24 *401:16 0
24 *329:26 *401:16 0
25 *330:65 *3628:clk1_phase_sel[2] 4.77425e-05
26 *385:94 *3628:clk1_phase_sel[2] 0.000126325
27 *400:23 *3047:A1 0.000144915
28 *400:38 *3047:A1 1.54556e-05
29 *400:38 *3628:clk1_phase_sel[2] 0.000313772
*RES
1 *3212:Q *401:10 47.5293 
2 *401:10 *401:16 24.7792 
3 *401:16 *3048:A0 20 
4 *401:16 *3628:clk1_phase_sel[2] 49.9884 
5 *401:10 *3047:A1 40.9682 
*END

*D_NET *402 0.00528547
*CONN
*I *3049:A0 I *D sg13g2_mux2_1
*I *3628:clk1_phase_sel[3] I *D multimode_dll
*I *3048:A1 I *D sg13g2_mux2_1
*I *3213:Q O *D sg13g2_dfrbpq_1
*CAP
1 *3049:A0 0
2 *3628:clk1_phase_sel[3] 6.55183e-05
3 *3048:A1 9.63918e-05
4 *3213:Q 0.000344996
5 *402:27 0.0006118
6 *402:21 0.00077324
7 *402:10 0.000323351
8 *402:8 0.000344996
9 *3628:clk1_phase_sel[3] *3628:clk1_phase_sel[4] 0
10 *402:8 *409:12 0
11 *402:8 *594:63 0.000660642
12 *402:8 *653:22 0.00156717
13 *3628:clk1_phase_sel[2] *3628:clk1_phase_sel[3] 0
14 *3628:clk1_phase_sel[2] *402:21 0
15 *330:33 *402:8 0.000160341
16 *330:39 *402:8 0.000289003
17 *400:38 *3628:clk1_phase_sel[3] 4.8025e-05
18 *400:38 *402:21 0
*RES
1 *3213:Q *402:8 47.2718 
2 *402:8 *402:10 20 
3 *402:10 *3048:A1 20.8858 
4 *402:10 *402:21 1.8334 
5 *402:21 *402:27 46.1594 
6 *402:27 *3628:clk1_phase_sel[3] 40.5691 
7 *402:21 *3049:A0 20 
*END

*D_NET *403 0.00651197
*CONN
*I *3628:clk1_phase_sel[4] I *D multimode_dll
*I *3050:A0 I *D sg13g2_mux2_1
*I *3049:A1 I *D sg13g2_mux2_1
*I *3214:Q O *D sg13g2_dfrbpq_1
*CAP
1 *3628:clk1_phase_sel[4] 0.00035038
2 *3050:A0 0.000142672
3 *3049:A1 3.04198e-05
4 *3214:Q 0.000524942
5 *403:23 0.000871421
6 *403:10 0.000408789
7 *403:8 0.000524942
8 *3050:A0 *3050:A1 8.00842e-05
9 *3050:A0 *599:81 0.000395488
10 *3628:clk1_phase_sel[4] *651:15 0
11 *403:8 *3214:RESET_B 0.00012816
12 *403:8 *634:58 0.000394258
13 *403:23 *599:81 0.000178042
14 *3628:clk1_phase_sel[2] *3628:clk1_phase_sel[4] 0.000112426
15 *3628:clk1_phase_sel[2] *403:23 0
16 *3628:clk1_phase_sel[3] *3628:clk1_phase_sel[4] 0
17 *3628:f_clk1_divider[3] *3628:clk1_phase_sel[4] 0
18 *3628:f_clk1_divider[4] *403:8 0.00161989
19 *138:8 *3050:A0 0.000235457
20 *283:19 *403:8 0
21 *326:10 *403:23 0
22 *329:10 *403:8 0
23 *329:16 *403:8 0
24 *400:38 *3049:A1 4.77425e-05
25 *400:38 *403:23 0.000466856
*RES
1 *3214:Q *403:8 47.519 
2 *403:8 *403:10 20 
3 *403:10 *3049:A1 20.3193 
4 *403:10 *403:23 23.9758 
5 *403:23 *3050:A0 42.369 
6 *403:23 *3628:clk1_phase_sel[4] 23.3913 
*END

*D_NET *404 0.00488386
*CONN
*I *3023:A0 I *D sg13g2_mux2_1
*I *3022:A1 I *D sg13g2_mux2_1
*I *3628:f_osc_multiply_factor[2] I *D multimode_dll
*I *3187:Q O *D sg13g2_dfrbpq_1
*CAP
1 *3023:A0 2.57931e-05
2 *3022:A1 0
3 *3628:f_osc_multiply_factor[2] 0.000209898
4 *3187:Q 0.000785763
5 *404:37 0.000337834
6 *404:29 0.000485996
7 *404:25 0.000698235
8 *3628:f_osc_multiply_factor[2] *3628:f_osc_multiply_factor[3] 0
9 *404:25 *3628:f_osc_multiply_factor[3] 0
10 *404:25 *415:20 0.000235055
11 *404:25 *599:36 0.000447685
12 *404:37 *499:17 0
13 *3022:A0 *404:37 1.54282e-05
14 *3454:A *404:25 0
15 *3628:f_clk1_divider[0] *3628:f_osc_multiply_factor[2] 0
16 *3628:f_clk1_divider[0] *404:25 0
17 *3628:f_osc_multiply_factor[0] *3023:A0 3.23417e-05
18 *3628:f_osc_multiply_factor[0] *404:29 0.000175693
19 *3628:f_osc_multiply_factor[1] *404:25 7.51285e-05
20 *290:41 *404:37 0
21 *320:14 *404:25 0.000341119
22 *320:53 *404:25 0.000905694
23 *323:6 *404:25 0.000112198
*RES
1 *3187:Q *3628:f_osc_multiply_factor[2] 22.1939 
2 *3187:Q *404:25 48.0546 
3 *404:25 *404:29 21.1845 
4 *404:29 *404:37 42.6471 
5 *404:37 *3022:A1 20 
6 *404:29 *3023:A0 20.3193 
*END

*D_NET *405 0.0179165
*CONN
*I *3050:A1 I *D sg13g2_mux2_1
*I *3051:A0 I *D sg13g2_mux2_1
*I *3628:clk2_phase_sel[0] I *D multimode_dll
*I *3215:Q O *D sg13g2_dfrbpq_1
*CAP
1 *3050:A1 0.000269499
2 *3051:A0 0.000295156
3 *3628:clk2_phase_sel[0] 0.000834072
4 *3215:Q 0.000278628
5 *405:26 0.00111617
6 *405:20 0.000669568
7 *405:16 0.00251792
8 *405:14 0.00275383
9 *405:10 0.000597724
10 *405:8 0.000278628
11 *3050:A1 *3050:S 0
12 *3050:A1 *3215:RESET_B 0
13 *3051:A0 *3051:A1 1.54008e-05
14 *3628:clk2_phase_sel[0] *3245:RESET_B 0
15 *3628:clk2_phase_sel[0] *589:72 0
16 *3628:clk2_phase_sel[0] *619:8 0.000143351
17 *3628:clk2_phase_sel[0] *619:10 0.000112426
18 *3628:clk2_phase_sel[0] *619:12 8.01116e-05
19 *405:8 *637:40 0.00103649
20 *405:14 *3050:S 0
21 *405:14 *3215:RESET_B 0
22 *405:16 *409:12 0
23 *405:16 *594:33 0.00108896
24 *405:16 *594:48 0.00066097
25 *405:16 *594:63 0.00226156
26 *405:16 *595:18 0
27 *405:16 *633:12 0
28 *405:16 *633:30 0
29 *405:16 *634:18 0
30 *405:16 *634:31 0
31 *405:16 *652:18 0.000735357
32 *405:26 *595:18 0.000821726
33 *405:26 *622:52 0
34 *3050:A0 *3050:A1 8.00842e-05
35 *3245:CLK *3628:clk2_phase_sel[0] 0
36 *3628:clk1_phase_sel[2] *3050:A1 0
37 *87:8 *405:16 0
38 *282:23 *405:16 0
39 *299:71 *405:16 0
40 *326:10 *405:8 0
41 *326:22 *405:16 0.000609684
42 *326:22 *405:26 0
43 *326:26 *405:26 0
44 *330:65 *405:8 0.000659136
45 *353:8 *405:16 0
*RES
1 *3215:Q *405:8 44.7998 
2 *405:8 *405:10 20 
3 *405:10 *405:14 22.417 
4 *405:14 *405:16 31.2502 
5 *405:16 *405:20 20.7519 
6 *405:20 *405:26 44.0582 
7 *405:26 *3628:clk2_phase_sel[0] 7.87178 
8 *405:20 *3051:A0 22.4823 
9 *405:10 *3050:A1 21.5898 
*END

*D_NET *406 0.00391899
*CONN
*I *3052:A0 I *D sg13g2_mux2_1
*I *3628:clk2_phase_sel[1] I *D multimode_dll
*I *3051:A1 I *D sg13g2_mux2_1
*I *3216:Q O *D sg13g2_dfrbpq_1
*CAP
1 *3052:A0 0.00020421
2 *3628:clk2_phase_sel[1] 0.000465679
3 *3051:A1 0.000104893
4 *3216:Q 0.000356526
5 *406:12 0.000695331
6 *406:10 0.000685494
7 *3051:A1 *423:12 0
8 *3052:A0 *3052:S 0
9 *3052:A0 *407:16 1.53561e-05
10 *3052:A0 *409:31 0
11 *3628:clk2_phase_sel[1] *3052:S 0
12 *3628:clk2_phase_sel[1] *3628:clk2_phase_sel[2] 0
13 *3628:clk2_phase_sel[1] *3628:ext_trim[7] 0
14 *406:10 *3542:A 0.000144542
15 *406:10 *407:16 0
16 *406:10 *634:8 0
17 *406:10 *637:89 0
18 *406:12 *423:12 0
19 *3051:A0 *3051:A1 1.54008e-05
20 *3217:D *3052:A0 0
21 *139:10 *3628:clk2_phase_sel[1] 4.77702e-05
22 *140:8 *406:10 0
23 *140:8 *406:12 0
24 *326:10 *406:10 7.52149e-05
25 *326:16 *406:10 0.00053281
26 *326:16 *406:12 7.51285e-05
27 *353:27 *3051:A1 0.000234727
28 *353:27 *406:12 0.000265903
*RES
1 *3216:Q *406:10 44.4393 
2 *406:10 *406:12 1.8334 
3 *406:12 *3051:A1 41.4111 
4 *406:12 *3628:clk2_phase_sel[1] 24.7251 
5 *406:10 *3052:A0 41.5833 
*END

*D_NET *407 0.00312832
*CONN
*I *3053:A0 I *D sg13g2_mux2_1
*I *3628:clk2_phase_sel[2] I *D multimode_dll
*I *3052:A1 I *D sg13g2_mux2_1
*I *3217:Q O *D sg13g2_dfrbpq_1
*CAP
1 *3053:A0 0
2 *3628:clk2_phase_sel[2] 0.000304741
3 *3052:A1 0
4 *3217:Q 0.000215931
5 *407:16 0.000784676
6 *407:10 0.000695865
7 *3628:clk2_phase_sel[2] *3628:clk2_phase_sel[3] 0.000278085
8 *407:10 *3053:S 0
9 *407:10 *3628:clk2_phase_sel[3] 0
10 *407:10 *408:14 7.52149e-05
11 *407:10 *599:81 0.000106392
12 *407:16 *3628:clk2_phase_sel[3] 0
13 *407:16 *423:12 0.000128663
14 *407:16 *599:81 0.000181781
15 *407:16 *634:8 0
16 *407:16 *637:89 0.000341619
17 *3052:A0 *407:16 1.53561e-05
18 *3218:D *407:10 0
19 *3628:clk2_phase_sel[1] *3628:clk2_phase_sel[2] 0
20 *140:8 *407:16 0
21 *406:10 *407:16 0
*RES
1 *3217:Q *407:10 42.2145 
2 *407:10 *407:16 25.1191 
3 *407:16 *3052:A1 20 
4 *407:16 *3628:clk2_phase_sel[2] 3.36037 
5 *407:10 *3053:A0 40 
*END

*D_NET *408 0.00651706
*CONN
*I *3054:A0 I *D sg13g2_mux2_1
*I *3053:A1 I *D sg13g2_mux2_1
*I *3628:clk2_phase_sel[3] I *D multimode_dll
*I *3218:Q O *D sg13g2_dfrbpq_1
*CAP
1 *3054:A0 0.000434802
2 *3053:A1 3.53805e-05
3 *3628:clk2_phase_sel[3] 0.000778611
4 *3218:Q 0.000304685
5 *408:14 0.00131525
6 *408:10 0.00124074
7 *3054:A0 *3054:A1 4.77425e-05
8 *3628:clk2_phase_sel[3] *3628:clk2_phase_sel[4] 0
9 *3628:clk2_phase_sel[3] *3628:ext_trim[20] 0
10 *3628:clk2_phase_sel[3] *3628:ext_trim[7] 0.000193228
11 *3628:clk2_phase_sel[3] *423:12 7.51285e-05
12 *408:10 *599:81 0
13 *408:14 *599:81 0
14 *3469:A *3054:A0 0
15 *3469:A *408:10 0.000306373
16 *3628:clk2_phase_sel[2] *3628:clk2_phase_sel[3] 0.000278085
17 *7:37 *3628:clk2_phase_sel[3] 0
18 *7:37 *408:14 0
19 *7:47 *408:10 0.000288502
20 *7:47 *408:14 0.00114332
21 *407:10 *3628:clk2_phase_sel[3] 0
22 *407:10 *408:14 7.52149e-05
23 *407:16 *3628:clk2_phase_sel[3] 0
*RES
1 *3218:Q *408:10 43.605 
2 *408:10 *408:14 6.1079 
3 *408:14 *3628:clk2_phase_sel[3] 27.6967 
4 *408:14 *3053:A1 40.3193 
5 *408:10 *3054:A0 44.2127 
*END

*D_NET *409 0.0214617
*CONN
*I *3054:A1 I *D sg13g2_mux2_1
*I *3628:clk2_phase_sel[4] I *D multimode_dll
*I *3055:A0 I *D sg13g2_mux2_1
*I *3219:Q O *D sg13g2_dfrbpq_1
*CAP
1 *3054:A1 3.04198e-05
2 *3628:clk2_phase_sel[4] 0.000184258
3 *3055:A0 8.64316e-05
4 *3219:Q 0.000101448
5 *409:31 0.00114832
6 *409:25 0.00141767
7 *409:12 0.00224573
8 *409:6 0.00268393
9 *3055:A0 *412:18 0.000144772
10 *3055:A0 *636:76 0
11 *3628:clk2_phase_sel[4] *3628:ext_trim[7] 0
12 *409:6 *595:41 0.00011101
13 *409:12 *594:63 0
14 *409:12 *595:41 0.000112541
15 *409:12 *596:72 0
16 *409:12 *652:18 0.00073825
17 *409:12 *653:22 0
18 *409:25 *574:8 0.00154466
19 *409:25 *595:31 0
20 *409:25 *637:10 0
21 *409:31 *3542:A 0
22 *409:31 *3628:ext_trim[20] 0.000264184
23 *409:31 *574:8 0.00210081
24 *3052:A0 *409:31 0
25 *3054:A0 *3054:A1 4.77425e-05
26 *3220:D *3055:A0 0
27 *3628:clk2_phase_sel[3] *3628:clk2_phase_sel[4] 0
28 *270:44 *409:25 0.00119378
29 *270:44 *409:31 0.00209864
30 *282:23 *409:12 0.00520709
31 *330:33 *409:12 0
32 *330:39 *409:12 0
33 *395:8 *409:12 0
34 *402:8 *409:12 0
35 *405:16 *409:12 0
*RES
1 *3219:Q *409:6 20.9682 
2 *409:6 *409:12 48.4486 
3 *409:12 *3055:A0 40.9682 
4 *409:6 *409:25 27.7662 
5 *409:25 *409:31 35.4706 
6 *409:31 *3628:clk2_phase_sel[4] 41.5579 
7 *409:25 *3054:A1 40.3193 
*END

*D_NET *410 0.0045256
*CONN
*I *3628:mode_xor[0] I *D multimode_dll
*I *3056:A0 I *D sg13g2_mux2_1
*I *3055:A1 I *D sg13g2_mux2_1
*I *3220:Q O *D sg13g2_dfrbpq_1
*CAP
1 *3628:mode_xor[0] 0.000308253
2 *3056:A0 0
3 *3055:A1 0.000389043
4 *3220:Q 0.000299059
5 *410:23 0.00070463
6 *410:10 0.00108448
7 *3628:mode_xor[0] *3056:A1 1.54008e-05
8 *3628:mode_xor[0] *597:78 0
9 *410:23 *3056:A1 0.00020894
10 *410:23 *597:8 0
11 *410:23 *597:78 0
12 *3221:D *410:23 0
13 *283:32 *3055:A1 0
14 *283:34 *3055:A1 0
15 *283:34 *410:10 0
16 *329:10 *3055:A1 0.00114167
17 *329:10 *410:10 0.000374128
18 *337:30 *410:23 0
19 *387:10 *3055:A1 0
*RES
1 *3220:Q *410:10 43.0179 
2 *410:10 *3055:A1 45.2942 
3 *410:10 *410:23 23.7801 
4 *410:23 *3056:A0 20 
5 *410:23 *3628:mode_xor[0] 3.57667 
*END

*D_NET *411 0.00568745
*CONN
*I *3056:A1 I *D sg13g2_mux2_1
*I *3628:mode_xor[1] I *D multimode_dll
*I *3057:A0 I *D sg13g2_mux2_1
*I *3221:Q O *D sg13g2_dfrbpq_1
*CAP
1 *3056:A1 0.000138629
2 *3628:mode_xor[1] 0.000418418
3 *3057:A0 0.000324971
4 *3221:Q 0.000920493
5 *411:14 0.00154454
6 *411:10 0.00186027
7 *411:10 *599:75 0
8 *411:10 *637:76 0.000175693
9 *411:14 *599:75 0
10 *411:14 *599:77 0
11 *3035:A0 *411:10 0
12 *3199:CLK *3057:A0 0
13 *3221:D *3056:A1 0
14 *3628:clk0_phase_sel[2] *3057:A0 0
15 *3628:clk0_phase_sel[2] *3628:mode_xor[1] 0
16 *3628:clk0_phase_sel[4] *3057:A0 0
17 *3628:clk0_phase_sel[4] *3628:mode_xor[1] 0
18 *3628:f_clk2_divider[3] *411:10 0
19 *3628:mode_xor[0] *3056:A1 1.54008e-05
20 *123:8 *411:10 0
21 *282:19 *3057:A0 8.00842e-05
22 *326:10 *411:10 0
23 *326:10 *411:14 0
24 *387:39 *411:10 0
25 *387:39 *411:14 0
26 *410:23 *3056:A1 0.00020894
*RES
1 *3221:Q *411:10 48.6482 
2 *411:10 *411:14 28.5078 
3 *411:14 *3057:A0 23.0488 
4 *411:14 *3628:mode_xor[1] 4.13287 
5 *411:10 *3056:A1 41.4008 
*END

*D_NET *412 0.00739663
*CONN
*I *3058:A0 I *D sg13g2_mux2_1
*I *3628:mode_xor[2] I *D multimode_dll
*I *3057:A1 I *D sg13g2_mux2_1
*I *3222:Q O *D sg13g2_dfrbpq_1
*CAP
1 *3058:A0 0.000284041
2 *3628:mode_xor[2] 0.000654857
3 *3057:A1 3.52545e-05
4 *3222:Q 3.08368e-05
5 *412:18 0.00122651
6 *412:8 0.000851273
7 *3058:A0 *3058:A1 0.000111567
8 *412:8 *653:22 0.000160013
9 *412:18 *3628:bias 0.000306196
10 *412:18 *636:76 0.000395897
11 *412:18 *653:22 0.00108896
12 *3055:A0 *412:18 0.000144772
13 *3628:clk0_phase_sel[2] *3628:mode_xor[2] 0.000272673
14 *282:9 *3628:mode_xor[2] 0.000223523
15 *282:19 *3057:A1 0.000181279
16 *282:19 *3628:mode_xor[2] 0.000595808
17 *282:19 *412:18 7.52158e-05
18 *329:10 *3057:A1 0.000181366
19 *329:10 *412:18 0.000265903
20 *337:30 *412:8 0.00018211
21 *337:30 *412:18 0.000128576
22 *387:10 *412:18 0
*RES
1 *3222:Q *412:8 40.8446 
2 *412:8 *412:18 48.4357 
3 *412:18 *3057:A1 40.8446 
4 *412:18 *3628:mode_xor[2] 26.9654 
5 *412:8 *3058:A0 42.6497 
*END

*D_NET *413 0.0704816
*CONN
*I *3059:A0 I *D sg13g2_mux2_1
*I *3058:A1 I *D sg13g2_mux2_1
*I *3628:bias I *D multimode_dll
*I *3223:Q O *D sg13g2_dfrbpq_1
*CAP
1 *3059:A0 0
2 *3058:A1 7.86652e-05
3 *3628:bias 0.0013933
4 *3223:Q 3.40265e-05
5 *413:57 0.00110774
6 *413:49 0.00563517
7 *413:47 0.00452743
8 *413:45 0.00558345
9 *413:43 0.00791635
10 *413:39 0.00540783
11 *413:12 0.00182736
12 *413:8 0.00346435
13 *3628:bias *480:12 0.0012539
14 *3628:bias *596:72 4.77425e-05
15 *413:8 *637:76 4.77089e-05
16 *413:12 *480:10 0.000911757
17 *413:12 *480:12 0.000718011
18 *413:39 *3116:S 0.000344393
19 *413:39 *605:89 0.000234598
20 *413:45 *605:71 0.00994387
21 *413:45 *646:49 0
22 *413:49 *3025:A1 0
23 *413:49 *3191:RESET_B 0.000661386
24 *413:49 *3193:RESET_B 0.000982482
25 *413:49 *502:13 0
26 *413:49 *599:67 0.0123661
27 *413:49 *640:32 0.00151662
28 *413:49 *646:10 0.000235055
29 *413:57 *3025:A1 0
30 *413:57 *3059:A1 3.23417e-05
31 *413:57 *414:8 0
32 *413:57 *414:14 0.0001118
33 *413:57 *640:8 0.000177157
34 *413:57 *640:32 0
35 *3058:A0 *3058:A1 0.000111567
36 *3222:D *3628:bias 0.00024131
37 *3223:CLK *413:39 0
38 *3628:clk0_phase_sel[2] *3628:bias 0
39 *282:9 *3628:bias 0
40 *282:19 *3628:bias 0
41 *327:16 *3628:bias 0
42 *331:10 *413:12 0.00140674
43 *331:10 *413:39 0
44 *331:10 *413:43 0
45 *331:14 *3628:bias 0.000607939
46 *331:14 *413:12 0.000319023
47 *332:24 *413:49 0
48 *332:30 *413:49 0
49 *337:22 *413:39 0
50 *337:24 *413:39 0
51 *367:8 *413:57 0.000928293
52 *387:39 *3628:bias 0
53 *412:18 *3628:bias 0.000306196
*RES
1 *3223:Q *413:8 40.3193 
2 *413:8 *413:12 8.3327 
3 *413:12 *3628:bias 35.6957 
4 *413:12 *3058:A1 40.7519 
5 *413:8 *413:39 29.3447 
6 *413:39 *413:43 46.5534 
7 *413:43 *413:45 73.2124 
8 *413:45 *413:47 20 
9 *413:47 *413:49 62.6446 
10 *413:49 *413:57 31.742 
11 *413:57 *3059:A0 20 
*END

*D_NET *414 0.0392196
*CONN
*I *3059:A1 I *D sg13g2_mux2_1
*I *3628:dco I *D multimode_dll
*I *3060:A0 I *D sg13g2_mux2_1
*I *3224:Q O *D sg13g2_dfrbpq_1
*CAP
1 *3059:A1 2.54185e-05
2 *3628:dco 5.53302e-05
3 *3060:A0 0
4 *3224:Q 0.000526033
5 *414:73 0.00153063
6 *414:60 0.000814888
7 *414:56 0.00110819
8 *414:48 0.00222039
9 *414:40 0.00174661
10 *414:32 0.00180823
11 *414:24 0.0032042
12 *414:18 0.00536979
13 *414:14 0.00285134
14 *414:10 0.000197765
15 *414:8 0.000526033
16 *414:8 *599:61 0.0016226
17 *414:18 *3195:RESET_B 0
18 *414:18 *501:17 0
19 *414:18 *638:22 7.57164e-05
20 *414:18 *638:58 0
21 *414:18 *640:21 0
22 *414:24 *3628:ext_trim[5] 0.00111536
23 *414:24 *498:17 0
24 *414:24 *624:26 0
25 *414:32 *436:20 7.63893e-05
26 *414:32 *533:20 0.001089
27 *414:40 *436:28 0.0017476
28 *414:40 *701:28 0.000343654
29 *414:48 *563:22 0.00106818
30 *414:56 *417:57 0
31 *414:56 *422:32 0
32 *414:56 *563:22 0.000129248
33 *414:60 *528:22 0
34 *414:60 *592:140 0
35 *414:73 *422:32 0.0023627
36 *414:73 *533:26 0.000301629
37 *3195:CLK *414:14 0
38 *3454:A *414:18 0
39 *76:12 *414:40 0
40 *148:12 *414:60 0.00313142
41 *149:22 *414:60 0.00191656
42 *246:53 *414:60 0.00106944
43 *270:8 *414:18 0
44 *270:20 *414:73 0
45 *293:22 *414:32 0
46 *298:18 *414:73 0
47 *298:108 *414:18 0.00104104
48 *299:10 *414:18 0
49 *299:10 *414:24 0
50 *328:92 *414:40 0
51 *344:12 *414:32 0
52 *352:26 *414:48 0
53 *367:8 *414:18 0
54 *367:16 *414:18 0
55 *413:57 *3059:A1 3.23417e-05
56 *413:57 *414:8 0
57 *413:57 *414:14 0.0001118
*RES
1 *3224:Q *414:8 47.519 
2 *414:8 *414:10 20 
3 *414:10 *414:14 21.6171 
4 *414:14 *414:18 32.96 
5 *414:18 *414:24 46.3783 
6 *414:24 *414:32 45.7989 
7 *414:32 *414:40 34.6157 
8 *414:40 *414:48 46.0152 
9 *414:48 *414:56 42.4308 
10 *414:56 *414:60 35.6766 
11 *414:60 *3060:A0 20 
12 *414:48 *414:73 36.4543 
13 *414:73 *3628:dco 20.4841 
14 *414:10 *3059:A1 20.3193 
*END

*D_NET *415 0.007366
*CONN
*I *3024:A0 I *D sg13g2_mux2_1
*I *3023:A1 I *D sg13g2_mux2_1
*I *3628:f_osc_multiply_factor[3] I *D multimode_dll
*I *3188:Q O *D sg13g2_dfrbpq_1
*CAP
1 *3024:A0 0.000741999
2 *3023:A1 0
3 *3628:f_osc_multiply_factor[3] 0.000448003
4 *3188:Q 0.000121124
5 *415:36 0.000713093
6 *415:20 0.00142139
7 *415:12 0.00112341
8 *3024:A0 *3024:A1 0.00058069
9 *3024:A0 *426:22 0.000144542
10 *3024:A0 *598:82 0.000402167
11 *415:12 *598:82 0.00014393
12 *415:12 *599:36 0
13 *415:20 *599:36 0.000288087
14 *3187:CLK *3628:f_osc_multiply_factor[3] 0
15 *3404:A *3024:A0 0
16 *3454:A *3628:f_osc_multiply_factor[3] 0
17 *3628:f_osc_multiply_factor[0] *415:36 0
18 *3628:f_osc_multiply_factor[2] *3628:f_osc_multiply_factor[3] 0
19 *112:14 *3024:A0 0
20 *290:41 *415:36 0
21 *320:53 *415:12 0
22 *320:53 *415:20 2.20966e-05
23 *323:6 *3024:A0 0
24 *385:28 *415:36 0.000980408
25 *404:25 *3628:f_osc_multiply_factor[3] 0
26 *404:25 *415:20 0.000235055
*RES
1 *3188:Q *415:12 41.5141 
2 *415:12 *415:20 23.2445 
3 *415:20 *3628:f_osc_multiply_factor[3] 4.5217 
4 *415:20 *415:36 47.3542 
5 *415:36 *3023:A1 20 
6 *415:12 *3024:A0 47.4778 
*END

*D_NET *416 0.0244896
*CONN
*I *3061:A0 I *D sg13g2_mux2_1
*I *3060:A1 I *D sg13g2_mux2_1
*I *3628:ext_trim[0] I *D multimode_dll
*I *3225:Q O *D sg13g2_dfrbpq_1
*CAP
1 *3061:A0 0
2 *3060:A1 0
3 *3628:ext_trim[0] 0
4 *3225:Q 0.000534116
5 *416:70 0.000822471
6 *416:53 0.000373343
7 *416:45 0.00130089
8 *416:43 0.000732819
9 *416:37 0.000948126
10 *416:24 0.00344911
11 *416:20 0.00395142
12 *416:16 0.000716042
13 *416:16 *522:30 0
14 *416:16 *666:39 0
15 *416:20 *628:22 1.4965e-05
16 *416:24 *422:32 0
17 *416:24 *422:38 0
18 *416:37 *563:22 0
19 *416:43 *3356:RESET_B 0
20 *416:43 *583:36 0.000813157
21 *416:43 *592:140 0.000346162
22 *416:53 *528:22 0
23 *416:70 *3061:S 7.3287e-05
24 *416:70 *3368:RESET_B 0
25 *416:70 *3487:A 0
26 *416:70 *592:39 0.000105299
27 *3177:D *416:53 0
28 *68:50 *416:70 0
29 *148:12 *416:43 0.00208567
30 *246:53 *416:53 0.000649419
31 *246:70 *416:20 0.000125706
32 *246:70 *416:24 7.93742e-05
33 *246:70 *416:43 0
34 *265:8 *416:16 2.46413e-05
35 *299:14 *416:24 0.00520711
36 *308:27 *416:16 0.000920157
37 *328:20 *416:24 0
38 *343:20 *416:37 0
39 *348:10 *416:70 0
40 *348:74 *416:70 0.000338887
41 *352:26 *416:37 0.000877412
*RES
1 *3225:Q *416:16 46.3242 
2 *416:16 *416:20 21.4008 
3 *416:20 *416:24 35.9702 
4 *416:24 *3628:ext_trim[0] 20 
5 *416:20 *416:37 44.3775 
6 *416:37 *416:43 49.7438 
7 *416:43 *416:45 0.9682 
8 *416:45 *416:53 43.605 
9 *416:53 *3060:A1 20 
10 *416:45 *416:70 48.0134 
11 *416:70 *3061:A0 20 
*END

*D_NET *417 0.0332409
*CONN
*I *3062:A0 I *D sg13g2_mux2_1
*I *3628:ext_trim[1] I *D multimode_dll
*I *3061:A1 I *D sg13g2_mux2_1
*I *3226:Q O *D sg13g2_dfrbpq_1
*CAP
1 *3062:A0 8.21287e-05
2 *3628:ext_trim[1] 0.000167104
3 *3061:A1 0.000423311
4 *3226:Q 0
5 *417:79 0.00156358
6 *417:73 0.00197434
7 *417:57 0.00302102
8 *417:55 0.00285391
9 *417:40 0.000774316
10 *417:28 0.00120104
11 *417:18 0.00188974
12 *417:10 0.00105686
13 *417:4 0.000510044
14 *3061:A1 *3369:D 0.000304675
15 *3061:A1 *3487:A 0
16 *3062:A0 *3062:A1 1.54008e-05
17 *417:10 *692:53 7.50455e-05
18 *417:18 *522:20 2.22341e-05
19 *417:18 *583:32 0
20 *417:18 *628:26 0.000449892
21 *417:18 *692:33 0
22 *417:28 *528:22 0.000764814
23 *417:28 *628:26 0.000235965
24 *417:28 *692:33 0
25 *417:28 *699:18 0.000861496
26 *417:40 *2940:A_N 0.000234146
27 *417:40 *3369:RESET_B 1.53666e-05
28 *417:40 *562:63 2.20248e-05
29 *417:57 *422:32 0
30 *417:57 *533:26 0
31 *417:73 *485:8 0.000229936
32 *417:73 *629:28 0.00022985
33 *417:79 *600:65 7.86999e-05
34 *417:79 *632:54 0.0021044
35 *417:79 *703:18 0.000144768
36 *417:79 *704:58 0
37 *3008:B1 *417:79 0.000754404
38 *3009:B *417:73 0.000176883
39 *3179:CLK *417:79 0
40 *68:50 *3061:A1 0
41 *68:50 *417:40 0
42 *149:14 *417:40 0.000239995
43 *149:22 *417:28 0
44 *240:22 *417:28 0
45 *242:22 *417:57 0
46 *246:76 *417:18 0.000289364
47 *267:25 *417:79 0.0021044
48 *270:20 *417:57 0.00390067
49 *289:35 *3628:ext_trim[1] 0
50 *298:18 *417:57 0
51 *308:16 *417:57 0
52 *308:27 *417:10 7.35219e-05
53 *308:33 *417:79 0
54 *346:10 *417:28 4.63914e-05
55 *346:10 *417:57 0
56 *385:44 *417:18 0.00242678
57 *385:56 *417:57 0.00192237
58 *414:56 *417:57 0
*RES
1 *3226:Q *417:4 20 
2 *417:4 *417:10 40.3502 
3 *417:10 *417:18 34.3685 
4 *417:18 *417:28 49.1773 
5 *417:28 *417:40 43.811 
6 *417:40 *3061:A1 43.8007 
7 *417:18 *417:55 20 
8 *417:55 *417:57 31.2502 
9 *417:57 *3628:ext_trim[1] 21.1768 
10 *417:4 *417:73 44.8719 
11 *417:73 *417:79 40.0129 
12 *417:79 *3062:A0 40.7519 
*END

*D_NET *418 0.00898152
*CONN
*I *3063:A0 I *D sg13g2_mux2_1
*I *3062:A1 I *D sg13g2_mux2_1
*I *3628:ext_trim[2] I *D multimode_dll
*I *3227:Q O *D sg13g2_dfrbpq_1
*CAP
1 *3063:A0 0.000330636
2 *3062:A1 0.000486142
3 *3628:ext_trim[2] 0.000393756
4 *3227:Q 0.000812168
5 *418:37 0.0013261
6 *418:29 0.00117874
7 *418:10 0.00053651
8 *3062:A1 *433:32 0.00027792
9 *3063:A0 *591:97 0.000209108
10 *418:10 *487:10 0.00055613
11 *418:10 *625:24 0.000557253
12 *418:29 *639:14 0.000531194
13 *418:37 *432:45 0
14 *418:37 *497:6 0
15 *418:37 *497:17 0
16 *418:37 *591:97 0.000233913
17 *3062:A0 *3062:A1 1.54008e-05
18 *3228:D *418:29 0.000595832
19 *3228:D *418:37 0
20 *151:8 *3063:A0 0
21 *151:8 *418:37 0
22 *164:14 *3062:A1 0.000133873
23 *263:30 *418:29 0.000289003
24 *288:41 *3063:A0 0
25 *309:12 *3063:A0 0.000177862
26 *309:12 *418:37 0.000339977
27 *319:81 *418:29 0
*RES
1 *3227:Q *418:10 42.8943 
2 *418:10 *3628:ext_trim[2] 23.2239 
3 *3227:Q *418:29 47.0658 
4 *418:29 *418:37 45.15 
5 *418:37 *3062:A1 44.6659 
6 *418:37 *3063:A0 43.2445 
*END

*D_NET *419 0.00643293
*CONN
*I *3064:A0 I *D sg13g2_mux2_1
*I *3063:A1 I *D sg13g2_mux2_1
*I *3628:ext_trim[3] I *D multimode_dll
*I *3228:Q O *D sg13g2_dfrbpq_1
*CAP
1 *3064:A0 0
2 *3063:A1 0
3 *3628:ext_trim[3] 0.000912312
4 *3228:Q 0.000322478
5 *419:40 0.000617513
6 *419:24 0.000789687
7 *419:12 0.00108449
8 *419:10 0.000322478
9 *3628:ext_trim[3] *3628:ext_trim[16] 0
10 *3628:ext_trim[3] *3628:ext_trim[18] 0
11 *3628:ext_trim[3] *625:20 0.000111568
12 *3628:ext_trim[3] *631:26 0
13 *419:10 *486:16 0
14 *419:10 *629:12 0
15 *419:10 *639:14 0
16 *419:24 *420:16 0.000240524
17 *419:40 *3063:S 0
18 *419:40 *3079:A1 0.000240377
19 *419:40 *527:10 0
20 *419:40 *592:39 0.000339413
21 *3152:A *3628:ext_trim[3] 0.000337402
22 *3152:A *419:24 0.000289661
23 *3152:B *419:40 0
24 *246:100 *419:24 0
25 *263:28 *419:40 0.000286959
26 *322:10 *419:10 0.000233078
27 *322:12 *419:10 0.000128742
28 *323:20 *3628:ext_trim[3] 0.000176252
*RES
1 *3228:Q *419:10 43.2033 
2 *419:10 *419:12 20 
3 *419:12 *3628:ext_trim[3] 8.26832 
4 *419:12 *419:24 2.0497 
5 *419:24 *419:40 46.5258 
6 *419:40 *3063:A1 20 
7 *419:24 *3064:A0 20 
*END

*D_NET *420 0.0092098
*CONN
*I *3628:ext_trim[4] I *D multimode_dll
*I *3065:A0 I *D sg13g2_mux2_1
*I *3064:A1 I *D sg13g2_mux2_1
*I *3229:Q O *D sg13g2_dfrbpq_1
*CAP
1 *3628:ext_trim[4] 0.00036253
2 *3065:A0 0.00020781
3 *3064:A1 0
4 *3229:Q 0
5 *420:44 0.00125733
6 *420:16 0.000374322
7 *420:14 0.0011842
8 *420:4 0.00191248
9 *3065:A0 *3065:A1 0.000175648
10 *3065:A0 *591:41 1.53556e-05
11 *3065:A0 *701:81 0.0001122
12 *3628:ext_trim[4] *3628:ext_trim[17] 0.000336278
13 *3628:ext_trim[4] *498:17 0
14 *420:14 *422:89 7.44237e-05
15 *420:14 *592:20 0.000855434
16 *420:14 *629:12 0
17 *420:44 *487:29 0.000876554
18 *3376:A *420:44 0
19 *235:28 *420:14 0.000112426
20 *235:28 *420:44 0.000458996
21 *246:100 *420:14 0.000653287
22 *272:20 *420:14 0
23 *288:61 *420:14 0
24 *288:61 *420:44 0
25 *299:10 *420:44 0
26 *322:10 *420:14 0
27 *419:24 *420:16 0.000240524
*RES
1 *3229:Q *420:4 20 
2 *420:4 *420:14 49.7953 
3 *420:14 *420:16 1.6171 
4 *420:16 *3064:A1 20 
5 *420:16 *3065:A0 22.1836 
6 *420:4 *420:44 49.0743 
7 *420:44 *3628:ext_trim[4] 3.2239 
*END

*D_NET *421 0.00680885
*CONN
*I *3066:A0 I *D sg13g2_mux2_1
*I *3065:A1 I *D sg13g2_mux2_1
*I *3628:ext_trim[5] I *D multimode_dll
*I *3230:Q O *D sg13g2_dfrbpq_1
*CAP
1 *3066:A0 0.000101844
2 *3065:A1 0.000300594
3 *3628:ext_trim[5] 0.000305942
4 *3230:Q 0.000959798
5 *421:31 0.000526189
6 *421:14 0.00114199
7 *3066:A0 *3066:A1 1.54008e-05
8 *3628:ext_trim[5] *3628:ext_trim[18] 0
9 *3628:ext_trim[5] *624:26 0.00111648
10 *3065:A0 *3065:A1 0.000175648
11 *3153:A *3065:A1 0
12 *3153:A *421:14 0.000240377
13 *3229:D *3065:A1 0.000127582
14 *3229:D *3066:A0 0
15 *3229:D *421:14 0
16 *3229:D *421:31 0.000143351
17 *3244:CLK *421:14 4.77425e-05
18 *76:10 *421:14 0.000378984
19 *101:8 *3065:A1 0.000111568
20 *414:24 *3628:ext_trim[5] 0.00111536
*RES
1 *3230:Q *421:14 47.8898 
2 *421:14 *3628:ext_trim[5] 25.9714 
3 *3230:Q *421:31 21.1845 
4 *421:31 *3065:A1 23.5947 
5 *421:31 *3066:A0 21.3055 
*END

*D_NET *422 0.0406732
*CONN
*I *3066:A1 I *D sg13g2_mux2_1
*I *3628:ext_trim[6] I *D multimode_dll
*I *3067:A0 I *D sg13g2_mux2_1
*I *3231:Q O *D sg13g2_dfrbpq_1
*CAP
1 *3066:A1 0.000148983
2 *3628:ext_trim[6] 6.09383e-05
3 *3067:A0 0.000573106
4 *3231:Q 3.42248e-05
5 *422:89 0.000605427
6 *422:62 0.00120868
7 *422:56 0.0015553
8 *422:38 0.00366259
9 *422:32 0.00583782
10 *422:28 0.00322408
11 *422:24 0.000971713
12 *422:20 0.00141537
13 *422:14 0.00107909
14 *422:8 0.00014502
15 *3067:A0 *3067:A1 0.000111567
16 *3067:A0 *566:20 0
17 *3067:A0 *590:36 0
18 *422:8 *639:14 0
19 *422:14 *432:37 0
20 *422:20 *562:98 4.63914e-05
21 *422:20 *617:14 0.00242633
22 *422:24 *562:75 0.00060357
23 *422:24 *562:98 0.00108031
24 *422:24 *600:71 0
25 *422:24 *629:28 0.000714315
26 *422:24 *629:55 0
27 *422:24 *708:33 0
28 *422:28 *628:22 0
29 *422:32 *628:22 0
30 *422:38 *3628:ext_trim[23] 0.000109336
31 *422:38 *429:31 0
32 *422:38 *429:39 0
33 *422:38 *443:40 0.00183088
34 *422:56 *3377:A 0
35 *422:56 *3475:A 0
36 *422:56 *3628:ext_trim[22] 0
37 *422:56 *424:8 0
38 *422:56 *424:31 0.000177185
39 *422:56 *492:31 0
40 *422:56 *496:27 0
41 *422:89 *522:14 0.000143301
42 *422:89 *617:14 0.00183356
43 *422:89 *629:12 7.31628e-05
44 *3066:A0 *3066:A1 1.54008e-05
45 *3153:A *3066:A1 0.000208035
46 *3228:CLK *422:8 0
47 *28:10 *422:62 0.000671967
48 *36:12 *3067:A0 0.000333709
49 *38:14 *422:38 0
50 *38:14 *422:62 0
51 *170:10 *422:56 0.000242213
52 *242:22 *422:62 0
53 *243:14 *422:24 0
54 *246:70 *422:32 0.000206339
55 *247:24 *422:89 0
56 *259:12 *422:32 0.000583508
57 *270:20 *422:32 0
58 *270:20 *422:38 0
59 *270:20 *422:62 0.000178448
60 *272:14 *422:20 0.00242744
61 *272:14 *422:89 0.00185561
62 *279:12 *422:62 0.000636095
63 *291:113 *422:24 0
64 *299:14 *422:38 0
65 *385:72 *422:56 0.000179649
66 *385:78 *3067:A0 0.0010254
67 *414:56 *422:32 0
68 *414:73 *422:32 0.0023627
69 *416:24 *422:32 0
70 *416:24 *422:38 0
71 *417:57 *422:32 0
72 *420:14 *422:89 7.44237e-05
*RES
1 *3231:Q *422:8 40.3193 
2 *422:8 *422:14 40.7519 
3 *422:14 *422:20 31.7626 
4 *422:20 *422:24 30.2382 
5 *422:24 *422:28 20.8446 
6 *422:28 *422:32 30.0245 
7 *422:32 *422:38 48.8503 
8 *422:38 *422:56 48.5696 
9 *422:56 *422:62 47.0246 
10 *422:62 *3067:A0 47.1276 
11 *422:38 *3628:ext_trim[6] 0.435175 
12 *422:14 *422:89 49.8262 
13 *422:89 *3066:A1 41.4008 
*END

*D_NET *423 0.0218445
*CONN
*I *3067:A1 I *D sg13g2_mux2_1
*I *3068:A0 I *D sg13g2_mux2_1
*I *3628:ext_trim[7] I *D multimode_dll
*I *3232:Q O *D sg13g2_dfrbpq_1
*CAP
1 *3067:A1 7.93212e-05
2 *3068:A0 0
3 *3628:ext_trim[7] 0.000285304
4 *3232:Q 0
5 *423:36 0.00101471
6 *423:30 0.00148295
7 *423:12 0.00226738
8 *423:4 0.002371
9 *3628:ext_trim[7] *3628:ext_trim[20] 0
10 *423:12 *3628:ext_trim[20] 0
11 *423:12 *438:12 0.00173318
12 *423:12 *438:18 0.00103774
13 *423:12 *439:18 0.00103726
14 *423:12 *514:10 0.00242605
15 *423:12 *589:72 0
16 *423:12 *622:67 0
17 *423:30 *514:10 0.00181636
18 *423:36 *2984:A0 8.00842e-05
19 *423:36 *514:10 0.00107844
20 *423:36 *693:10 0.000124547
21 *3051:A1 *423:12 0
22 *3067:A0 *3067:A1 0.000111567
23 *3628:clk2_phase_sel[1] *3628:ext_trim[7] 0
24 *3628:clk2_phase_sel[3] *3628:ext_trim[7] 0.000193228
25 *3628:clk2_phase_sel[3] *423:12 7.51285e-05
26 *3628:clk2_phase_sel[4] *3628:ext_trim[7] 0
27 *7:35 *423:30 0.0018549
28 *7:35 *423:36 0.00218318
29 *35:12 *423:36 0.000126859
30 *48:18 *423:36 0.000336687
31 *140:8 *423:12 0
32 *239:30 *423:36 0
33 *317:16 *423:36 0
34 *406:12 *423:12 0
35 *407:16 *423:12 0.000128663
*RES
1 *3232:Q *423:4 20 
2 *423:4 *423:12 48.4589 
3 *423:12 *3628:ext_trim[7] 22.5621 
4 *423:4 *423:30 29.0434 
5 *423:30 *423:36 33.3694 
6 *423:36 *3068:A0 20 
7 *423:30 *3067:A1 40.7519 
*END

*D_NET *424 0.00918485
*CONN
*I *3628:ext_trim[8] I *D multimode_dll
*I *3069:A0 I *D sg13g2_mux2_1
*I *3068:A1 I *D sg13g2_mux2_1
*I *3233:Q O *D sg13g2_dfrbpq_1
*CAP
1 *3628:ext_trim[8] 0.000558889
2 *3069:A0 0
3 *3068:A1 0
4 *3233:Q 0.000196284
5 *424:39 0.000795603
6 *424:31 0.00205064
7 *424:20 0.000870129
8 *424:8 0.00176256
9 *3628:ext_trim[8] *3475:A 0
10 *3628:ext_trim[8] *3628:ext_trim[23] 0.000228663
11 *3628:ext_trim[8] *441:12 0
12 *3628:ext_trim[8] *492:31 0
13 *3628:ext_trim[8] *496:23 0
14 *3628:ext_trim[8] *590:16 0
15 *424:8 *590:16 0
16 *424:8 *590:18 0
17 *424:20 *565:8 0
18 *424:20 *579:50 0
19 *424:20 *595:73 0.000403597
20 *424:31 *3377:A 0
21 *424:31 *3475:A 0
22 *424:31 *440:12 0
23 *424:31 *590:16 0
24 *424:39 *3069:S 0.000388611
25 *424:39 *425:14 0
26 *424:39 *579:44 0.00101944
27 *424:39 *587:54 0.000443294
28 uio_out[1] *424:20 0
29 uio_out[3] *424:39 0
30 uio_out[4] *424:39 0
31 *170:10 *424:31 0.000242213
32 *279:20 *424:20 0
33 *294:63 *424:39 4.77425e-05
34 *385:72 *424:8 0
35 *385:72 *424:20 0
36 *385:72 *424:31 0
37 *422:56 *424:8 0
38 *422:56 *424:31 0.000177185
*RES
1 *3233:Q *424:8 22.0291 
2 *424:8 *424:20 47.6117 
3 *424:20 *3068:A1 20 
4 *424:8 *424:31 6.8289 
5 *424:31 *424:39 49.0743 
6 *424:39 *3069:A0 20 
7 *424:31 *3628:ext_trim[8] 24.4625 
*END

*D_NET *425 0.00513665
*CONN
*I *3628:ext_trim[9] I *D multimode_dll
*I *3070:A0 I *D sg13g2_mux2_1
*I *3069:A1 I *D sg13g2_mux2_1
*I *3234:Q O *D sg13g2_dfrbpq_1
*CAP
1 *3628:ext_trim[9] 0.000223639
2 *3070:A0 0
3 *3069:A1 0
4 *3234:Q 4.22912e-05
5 *425:22 0.000137194
6 *425:14 0.000908915
7 *425:8 0.00103765
8 *3628:ext_trim[9] *441:12 2.14736e-05
9 *425:14 *3084:A0 0.00075925
10 *425:14 *427:32 0.000208035
11 *425:14 *441:12 0.000784729
12 *425:14 *587:76 0
13 *425:22 *3069:S 0.000338555
14 *425:22 *427:32 1.54008e-05
15 *425:22 *587:54 0.000159836
16 uio_out[3] *425:22 0.000499681
17 uio_out[4] *425:14 0
18 *66:22 *425:14 0
19 *424:39 *425:14 0
*RES
1 *3234:Q *425:8 40.3193 
2 *425:8 *425:14 28.6726 
3 *425:14 *425:22 42.6471 
4 *425:22 *3069:A1 20 
5 *425:14 *3070:A0 20 
6 *425:8 *3628:ext_trim[9] 1.42397 
*END

*D_NET *426 0.0171425
*CONN
*I *3025:A0 I *D sg13g2_mux2_1
*I *3024:A1 I *D sg13g2_mux2_1
*I *3628:f_osc_multiply_factor[4] I *D multimode_dll
*I *3189:Q O *D sg13g2_dfrbpq_1
*CAP
1 *3025:A0 0
2 *3024:A1 0.000502836
3 *3628:f_osc_multiply_factor[4] 0.000818199
4 *3189:Q 3.17935e-05
5 *426:55 0.00216845
6 *426:28 0.00131694
7 *426:22 0.00145446
8 *426:16 0.000792961
9 *426:8 0.00254033
10 *3024:A1 *3024:S 0
11 *3628:f_osc_multiply_factor[4] *3187:RESET_B 0
12 *426:16 *598:82 0.000452116
13 *426:22 *641:118 0.00147196
14 *426:28 *598:57 0
15 *426:28 *598:70 0.00012816
16 *426:55 *3025:A1 0.000176484
17 *426:55 *3025:S 0
18 *426:55 *481:33 0
19 *426:55 *598:82 0.000159096
20 *426:55 *598:97 0
21 *426:55 *598:116 0
22 *426:55 *599:42 0
23 *426:55 *638:99 0
24 *3024:A0 *3024:A1 0.00058069
25 *3024:A0 *426:22 0.000144542
26 *3187:CLK *3628:f_osc_multiply_factor[4] 0
27 *3190:D *426:55 0
28 *3403:A *426:28 0.000394237
29 *3628:f_osc_multiply_factor[1] *3628:f_osc_multiply_factor[4] 0
30 *111:10 *3628:f_osc_multiply_factor[4] 0.000175693
31 *112:14 *3024:A1 0
32 *298:112 *426:8 4.75166e-05
33 *299:8 *3628:f_osc_multiply_factor[4] 0
34 *320:8 *3628:f_osc_multiply_factor[4] 0.000466141
35 *320:68 *426:16 0.000450066
36 *320:68 *426:55 0.000877301
37 *322:10 *426:28 0.000500214
38 *323:6 *3024:A1 0
39 *385:10 *426:55 0.000395066
40 *385:22 *426:22 0
41 *385:22 *426:55 0
42 *385:28 *426:22 0.00109726
*RES
1 *3189:Q *426:8 40.3193 
2 *426:8 *426:16 44.1303 
3 *426:16 *426:22 27.7456 
4 *426:22 *426:28 46.283 
5 *426:28 *3628:f_osc_multiply_factor[4] 7.9825 
6 *426:22 *3024:A1 25.3457 
7 *426:8 *426:55 40.9914 
8 *426:55 *3025:A0 20 
*END

*D_NET *427 0.0104782
*CONN
*I *3071:A0 I *D sg13g2_mux2_1
*I *3628:ext_trim[10] I *D multimode_dll
*I *3070:A1 I *D sg13g2_mux2_1
*I *3235:Q O *D sg13g2_dfrbpq_1
*CAP
1 *3071:A0 0
2 *3628:ext_trim[10] 0.000162078
3 *3070:A1 0
4 *3235:Q 0
5 *427:63 0.000783823
6 *427:53 0.00188687
7 *427:32 0.000738598
8 *427:18 0.0016248
9 *427:6 0.00107757
10 *427:4 0.00113233
11 *427:6 *492:31 0
12 *427:6 *610:82 0
13 *427:18 *3235:RESET_B 0.000369231
14 *427:18 *490:15 0
15 *427:18 *492:19 0
16 *427:18 *492:31 0
17 *427:18 *588:46 0.000646526
18 *427:18 *610:82 0
19 *427:32 *3235:RESET_B 5.61253e-05
20 *427:32 *496:23 0
21 *427:32 *616:45 4.77425e-05
22 *427:53 *3471:A 0
23 *427:53 *442:8 0
24 *427:53 *489:23 0
25 *427:53 *491:15 0
26 *427:53 *492:31 0
27 *427:53 *580:28 0
28 *427:53 *610:82 0
29 *427:63 *3071:A1 0.000240127
30 *427:63 *3071:S 0
31 *427:63 *429:39 0
32 uio_oe[3] *427:63 0
33 *66:8 *427:32 0.00014454
34 *172:10 *427:32 0.000208592
35 *172:18 *427:18 0.000305318
36 *172:18 *427:53 0.000178047
37 *239:24 *427:53 0
38 *239:30 *427:53 0
39 *245:37 *427:63 0
40 *246:12 *427:32 0
41 *246:16 *427:32 0.00026415
42 *343:28 *427:32 0
43 *344:41 *427:32 0.000388317
44 *425:14 *427:32 0.000208035
45 *425:22 *427:32 1.54008e-05
*RES
1 *3235:Q *427:4 20 
2 *427:4 *427:6 0.3193 
3 *427:6 *427:18 49.0949 
4 *427:18 *427:32 47.4675 
5 *427:32 *3070:A1 20 
6 *427:6 *3628:ext_trim[10] 21.424 
7 *427:4 *427:53 49.2906 
8 *427:53 *427:63 47.6941 
9 *427:63 *3071:A0 20 
*END

*D_NET *428 0.00661769
*CONN
*I *3071:A1 I *D sg13g2_mux2_1
*I *3072:A0 I *D sg13g2_mux2_1
*I *3628:ext_trim[11] I *D multimode_dll
*I *3236:Q O *D sg13g2_dfrbpq_1
*CAP
1 *3071:A1 0.000153435
2 *3072:A0 0.000103697
3 *3628:ext_trim[11] 0.000155545
4 *3236:Q 0.000140439
5 *428:32 0.00120437
6 *428:14 0.0016303
7 *428:10 0.000667955
8 *3072:A0 *3071:S 7.55059e-05
9 *3072:A0 *518:12 0
10 *3628:ext_trim[11] *3628:ext_trim[25] 0
11 *3628:ext_trim[11] *443:10 0
12 *3628:ext_trim[11] *610:82 0
13 *428:10 *3628:ext_trim[13] 0.000244349
14 *428:14 *443:10 0
15 *428:14 *610:82 0
16 *428:32 *3071:S 0
17 *428:32 *3628:ext_trim[12] 0
18 *428:32 *3628:ext_trim[25] 0
19 *428:32 *429:39 0
20 *428:32 *588:65 0.000332608
21 *3167:B *428:14 0
22 *3237:D *3071:A1 0.000272435
23 *3237:D *428:32 1.11314e-05
24 *3372:A *428:14 0
25 *6:32 *428:14 0
26 *65:28 *3072:A0 0
27 *65:28 *428:32 0.000208312
28 *90:10 *428:32 0.00117748
29 *298:77 *428:32 0
30 *345:18 *428:10 0
31 *427:63 *3071:A1 0.000240127
*RES
1 *3236:Q *428:10 41.4111 
2 *428:10 *428:14 24.6453 
3 *428:14 *3628:ext_trim[11] 21.3442 
4 *428:14 *428:32 49.8185 
5 *428:32 *3072:A0 21.3519 
6 *428:32 *3071:A1 21.8617 
*END

*D_NET *429 0.00761962
*CONN
*I *3628:ext_trim[12] I *D multimode_dll
*I *3072:A1 I *D sg13g2_mux2_1
*I *3073:A0 I *D sg13g2_mux2_1
*I *3237:Q O *D sg13g2_dfrbpq_1
*CAP
1 *3628:ext_trim[12] 9.92594e-05
2 *3072:A1 0
3 *3073:A0 0
4 *3237:Q 0
5 *429:39 0.00101279
6 *429:31 0.00169756
7 *429:20 0.0014858
8 *429:6 0.00207131
9 *429:20 *3072:S 0.000143481
10 *429:20 *610:58 0.000235075
11 *429:20 *610:72 0
12 *429:31 *610:72 0
13 uio_oe[3] *429:39 0
14 *3237:D *429:20 0
15 *3238:D *429:20 0
16 *3375:A *429:20 0
17 *32:12 *429:20 4.77425e-05
18 *90:10 *429:39 0
19 *270:20 *429:31 0.000729975
20 *270:20 *429:39 9.6622e-05
21 *287:27 *429:20 0
22 *298:77 *429:39 0
23 *422:38 *429:31 0
24 *422:38 *429:39 0
25 *427:63 *429:39 0
26 *428:32 *3628:ext_trim[12] 0
27 *428:32 *429:39 0
*RES
1 *3237:Q *429:6 40 
2 *429:6 *429:20 34.2099 
3 *429:20 *3073:A0 20 
4 *429:6 *429:31 25.8144 
5 *429:31 *429:39 48.9044 
6 *429:39 *3072:A1 20 
7 *429:31 *3628:ext_trim[12] 20.7313 
*END

*D_NET *430 0.00417987
*CONN
*I *3074:A0 I *D sg13g2_mux2_1
*I *3073:A1 I *D sg13g2_mux2_1
*I *3628:ext_trim[13] I *D multimode_dll
*I *3238:Q O *D sg13g2_dfrbpq_1
*CAP
1 *3074:A0 0.000162111
2 *3073:A1 0.000461696
3 *3628:ext_trim[13] 0.000831332
4 *3238:Q 0.00134395
5 *430:27 0.00113643
6 *3073:A1 *3074:S 0
7 *3074:A0 *3074:S 0
8 *3628:ext_trim[13] *610:72 0
9 *430:27 *529:8 0
10 uio_oe[6] *3073:A1 0
11 uio_oe[6] *430:27 0
12 *6:32 *3628:ext_trim[13] 0
13 *32:12 *3073:A1 0
14 *242:18 *430:27 0
15 *247:60 *3073:A1 0
16 *317:16 *3074:A0 0
17 *345:18 *3628:ext_trim[13] 0
18 *346:16 *430:27 0
19 *351:20 *3074:A0 0
20 *428:10 *3628:ext_trim[13] 0.000244349
*RES
1 *3238:Q *3628:ext_trim[13] 48.0675 
2 *3238:Q *430:27 44.0582 
3 *430:27 *3073:A1 44.2024 
4 *430:27 *3074:A0 41.4008 
*END

*D_NET *431 0.0114044
*CONN
*I *3075:A0 I *D sg13g2_mux2_1
*I *3074:A1 I *D sg13g2_mux2_1
*I *3628:ext_trim[14] I *D multimode_dll
*I *3239:Q O *D sg13g2_dfrbpq_1
*CAP
1 *3075:A0 0
2 *3074:A1 0
3 *3628:ext_trim[14] 0.000467002
4 *3239:Q 0.000959663
5 *431:56 0.000774612
6 *431:42 0.00285523
7 *431:31 0.00026708
8 *431:25 0.00234769
9 *431:23 0.000492661
10 *3628:ext_trim[14] *529:14 0
11 *431:23 *672:8 0
12 *431:42 *519:16 0
13 *431:42 *625:49 0.000177583
14 *431:42 *700:14 0
15 *431:56 *533:40 0
16 *431:56 *583:60 0
17 *431:56 *592:66 0.00014373
18 *431:56 *690:10 0
19 *431:56 *697:46 0
20 *3352:CLK *431:42 0.000125963
21 *6:32 *3628:ext_trim[14] 0
22 *12:13 *431:31 0.000406456
23 *12:13 *431:42 0.0006233
24 *31:28 *431:23 0
25 *51:35 *431:42 7.34081e-05
26 *52:24 *431:42 0.00138501
27 *68:39 *431:56 0
28 *93:18 *431:56 0
29 *242:18 *431:23 0
30 *247:52 *431:42 0
31 *289:41 *431:23 0
32 *292:10 *431:56 0.000304992
33 *344:24 *431:31 0
34 *344:24 *431:42 0
35 *345:18 *3628:ext_trim[14] 0
*RES
1 *3239:Q *3628:ext_trim[14] 43.9063 
2 *3239:Q *431:23 43.811 
3 *431:23 *431:25 20 
4 *431:25 *431:31 42.6986 
5 *431:31 *3074:A1 20 
6 *431:25 *431:42 41.5579 
7 *431:42 *431:56 47.4063 
8 *431:56 *3075:A0 40 
*END

*D_NET *432 0.0177012
*CONN
*I *3076:A0 I *D sg13g2_mux2_1
*I *3628:ext_trim[15] I *D multimode_dll
*I *3075:A1 I *D sg13g2_mux2_1
*I *3240:Q O *D sg13g2_dfrbpq_1
*CAP
1 *3076:A0 0
2 *3628:ext_trim[15] 3.80179e-05
3 *3075:A1 0
4 *3240:Q 0.000147637
5 *432:45 0.000455268
6 *432:37 0.00217928
7 *432:23 0.00231117
8 *432:16 0.00175987
9 *432:8 0.00245664
10 *432:16 *583:60 0.000112568
11 *432:16 *624:32 0.00359003
12 *432:16 *704:34 0
13 *432:23 *624:32 0
14 *432:37 *433:22 0
15 *432:37 *436:20 0
16 *432:37 *533:16 0
17 *432:37 *624:26 7.49317e-05
18 *432:37 *624:32 0
19 *432:45 *3062:S 1.54008e-05
20 *432:45 *433:32 0
21 *432:45 *591:97 0.000337402
22 *68:39 *432:16 0
23 *93:18 *432:16 0.00202091
24 *151:14 *432:37 0
25 *163:14 *432:16 0
26 *164:14 *432:45 0
27 *256:12 *432:37 7.78609e-05
28 *298:22 *432:16 0.00212422
29 *300:22 *432:37 0
30 *418:37 *432:45 0
31 *422:14 *432:37 0
*RES
1 *3240:Q *432:8 41.1845 
2 *432:8 *432:16 48.119 
3 *432:16 *3075:A1 20 
4 *432:8 *432:23 5.17833 
5 *432:23 *3628:ext_trim[15] 20.3759 
6 *432:23 *432:37 33.2381 
7 *432:37 *432:45 44.1612 
8 *432:45 *3076:A0 20 
*END

*D_NET *433 0.0110858
*CONN
*I *3628:ext_trim[16] I *D multimode_dll
*I *3077:A0 I *D sg13g2_mux2_1
*I *3076:A1 I *D sg13g2_mux2_1
*I *3241:Q O *D sg13g2_dfrbpq_1
*CAP
1 *3628:ext_trim[16] 0.000286778
2 *3077:A0 0.000465903
3 *3076:A1 0
4 *3241:Q 3.13215e-05
5 *433:32 0.000419423
6 *433:22 0.00160433
7 *433:16 0.00227048
8 *433:8 0.000937772
9 *3077:A0 *3077:A1 0.000175695
10 *3077:A0 *623:12 0.000208037
11 *3077:A0 *699:59 0.000896818
12 *433:8 *631:26 0.000160494
13 *433:16 *522:14 0
14 *433:16 *631:26 0.00012874
15 *433:16 *692:53 0
16 *433:22 *600:57 7.78179e-05
17 *433:22 *600:102 0.000221363
18 *433:22 *699:59 0.000386501
19 *3062:A1 *433:32 0.00027792
20 *3628:ext_trim[3] *3628:ext_trim[16] 0
21 *164:14 *433:32 0
22 *167:16 *433:16 0
23 *243:12 *3077:A0 0.00086295
24 *243:12 *433:22 0.0012854
25 *247:24 *433:16 0
26 *247:32 *433:22 0
27 *256:12 *433:22 7.78609e-05
28 *299:10 *433:8 0.000182519
29 *299:10 *433:16 0.00012767
30 *300:22 *433:22 0
31 *432:37 *433:22 0
32 *432:45 *433:32 0
*RES
1 *3241:Q *433:8 40.8446 
2 *433:8 *433:16 45.459 
3 *433:16 *433:22 31.1137 
4 *433:22 *433:32 43.5844 
5 *433:32 *3076:A1 20 
6 *433:16 *3077:A0 46.4478 
7 *433:8 *3628:ext_trim[16] 22.575 
*END

*D_NET *434 0.00524162
*CONN
*I *3078:A0 I *D sg13g2_mux2_1
*I *3077:A1 I *D sg13g2_mux2_1
*I *3628:ext_trim[17] I *D multimode_dll
*I *3242:Q O *D sg13g2_dfrbpq_1
*CAP
1 *3078:A0 2.84713e-05
2 *3077:A1 0.00050219
3 *3628:ext_trim[17] 0.000413034
4 *3242:Q 0.00102106
5 *434:27 0.00113869
6 *3077:A1 *435:18 0
7 *3077:A1 *533:10 0.000208229
8 *3077:A1 *630:37 0
9 *3078:A0 *3078:A1 1.54008e-05
10 *434:27 *3480:A 0
11 *434:27 *435:10 0
12 *434:27 *530:14 0
13 *3077:A0 *3077:A1 0.000175695
14 *3628:ext_trim[4] *3628:ext_trim[17] 0.000336278
15 *166:10 *434:27 0
16 *293:41 *3078:A0 4.77425e-05
17 *322:10 *3077:A1 0.000805691
18 *322:10 *434:27 0.000549143
*RES
1 *3242:Q *3628:ext_trim[17] 24.0762 
2 *3242:Q *434:27 45.7062 
3 *434:27 *3077:A1 45.2118 
4 *434:27 *3078:A0 40.3193 
*END

*D_NET *435 0.0139974
*CONN
*I *3078:A1 I *D sg13g2_mux2_1
*I *3079:A0 I *D sg13g2_mux2_1
*I *3628:ext_trim[18] I *D multimode_dll
*I *3243:Q O *D sg13g2_dfrbpq_1
*CAP
1 *3078:A1 6.27159e-05
2 *3079:A0 0.000637791
3 *3628:ext_trim[18] 0.000722644
4 *3243:Q 0.000914362
5 *435:22 0.00204188
6 *435:18 0.00130001
7 *435:10 0.00159564
8 *3079:A0 *3079:A1 0.000143351
9 *3079:A0 *436:71 0.000579453
10 *3628:ext_trim[18] *436:71 0.00030506
11 *3628:ext_trim[18] *486:16 7.47893e-05
12 *435:10 *3366:RESET_B 0
13 *435:10 *3435:A 0.000562496
14 *435:10 *3480:A 0
15 *435:10 *498:17 0
16 *435:10 *600:24 0.00109266
17 *435:18 *533:10 0
18 *435:18 *600:24 0
19 *435:18 *607:20 0.000112236
20 *435:18 *630:37 0.000124547
21 *435:22 *600:8 7.44263e-05
22 *435:22 *623:18 0.0018226
23 *435:22 *630:47 0
24 *435:22 *698:45 0
25 *3077:A1 *435:18 0
26 *3078:A0 *3078:A1 1.54008e-05
27 *3153:A *435:22 0.000686423
28 *3452:A *3079:A0 0.000627195
29 *3628:ext_trim[3] *3628:ext_trim[18] 0
30 *3628:ext_trim[5] *3628:ext_trim[18] 0
31 *290:43 *435:22 0
32 *297:8 *435:22 0.000426821
33 *297:10 *435:22 7.48842e-05
34 *322:10 *435:10 0
35 *385:34 *435:22 0
36 *434:27 *435:10 0
*RES
1 *3243:Q *435:10 49.9395 
2 *435:10 *435:18 44.6865 
3 *435:18 *435:22 29.991 
4 *435:22 *3628:ext_trim[18] 6.0932 
5 *435:22 *3079:A0 26.8598 
6 *435:10 *3078:A1 40.5356 
*END

*D_NET *436 0.0527551
*CONN
*I *3079:A1 I *D sg13g2_mux2_1
*I *3080:A0 I *D sg13g2_mux2_1
*I *3628:ext_trim[19] I *D multimode_dll
*I *3244:Q O *D sg13g2_dfrbpq_1
*CAP
1 *3079:A1 0.00019813
2 *3080:A0 0.000197506
3 *3628:ext_trim[19] 0.000362577
4 *3244:Q 0.000642224
5 *436:71 0.000818901
6 *436:38 0.0018924
7 *436:36 0.00264207
8 *436:30 0.00674084
9 *436:28 0.00713408
10 *436:24 0.00170299
11 *436:20 0.00037864
12 *436:10 0.00164164
13 *3080:A0 *3080:S 0
14 *3080:A0 *438:18 1.54008e-05
15 *3080:A0 *589:72 0
16 *3628:ext_trim[19] *3080:S 0.000112045
17 *436:10 *487:29 0.00183979
18 *436:10 *625:24 0.000642443
19 *436:20 *487:29 0.000283585
20 *436:20 *533:16 0
21 *436:20 *533:20 0
22 *436:20 *625:24 0.000283868
23 *436:28 *498:17 0
24 *436:28 *509:14 0.00160365
25 *436:28 *624:26 0
26 *436:28 *624:32 0.00492167
27 *436:30 *580:32 0
28 *436:36 *3067:S 0.000323552
29 *436:36 *3232:RESET_B 0
30 *436:36 *514:30 0.000550126
31 *436:36 *570:14 0.00144516
32 *436:36 *586:35 0.000387803
33 *436:36 *590:40 0
34 *436:36 *614:87 0
35 *436:36 *641:85 0
36 *436:38 *438:18 0
37 *436:38 *590:40 0
38 *436:38 *641:85 0
39 *436:71 *3230:RESET_B 0.000208035
40 *436:71 *3241:RESET_B 0.000498884
41 *436:71 *592:39 0.000233463
42 *3079:A0 *3079:A1 0.000143351
43 *3079:A0 *436:71 0.000579453
44 *3245:D *3080:A0 0
45 *3628:ext_trim[18] *436:71 0.00030506
46 *34:16 *436:30 0.00145372
47 *150:14 *436:71 0
48 *154:12 *436:71 0.000234461
49 *240:22 *436:30 0.00960294
50 *279:12 *436:30 0
51 *293:22 *436:20 0.000130504
52 *298:22 *436:28 0.000539835
53 *299:10 *436:10 0
54 *299:54 *3080:A0 0
55 *299:54 *436:36 0
56 *299:54 *436:38 0
57 *328:92 *436:28 0
58 *343:20 *436:30 0
59 *354:33 *436:36 0
60 *414:32 *436:20 7.63893e-05
61 *414:40 *436:28 0.0017476
62 *419:40 *3079:A1 0.000240377
63 *432:37 *436:20 0
*RES
1 *3244:Q *436:10 48.8271 
2 *436:10 *436:20 44.2024 
3 *436:20 *436:24 40 
4 *436:24 *436:28 46.8006 
5 *436:28 *436:30 66.2908 
6 *436:30 *436:36 36.2431 
7 *436:36 *436:38 14.6878 
8 *436:38 *3628:ext_trim[19] 23.7466 
9 *436:38 *3080:A0 42.06 
10 *436:10 *436:71 47.4675 
11 *436:71 *3079:A1 42.0497 
*END

*D_NET *437 0.00606483
*CONN
*I *3026:A0 I *D sg13g2_mux2_1
*I *3628:f_clk0_divider[0] I *D multimode_dll
*I *3025:A1 I *D sg13g2_mux2_1
*I *3190:Q O *D sg13g2_dfrbpq_1
*CAP
1 *3026:A0 0.000293747
2 *3628:f_clk0_divider[0] 0.000426607
3 *3025:A1 0.000643595
4 *3190:Q 0
5 *437:21 0.00167205
6 *437:6 0.00159529
7 *3025:A1 *481:27 0
8 *3025:A1 *481:33 0
9 *3025:A1 *599:61 0.00124889
10 *3025:A1 *599:67 0
11 *3026:A0 *3628:f_clk0_divider[3] 0
12 *3026:A0 *481:27 0
13 *3026:A0 *605:14 0
14 *3628:f_clk0_divider[0] *3628:f_clk0_divider[3] 8.15994e-06
15 *3628:f_clk0_divider[0] *3628:f_clk0_divider[4] 0
16 *3628:f_clk0_divider[0] *481:27 0
17 *437:21 *481:27 0
18 *437:21 *599:67 0
19 *3190:D *3025:A1 0
20 *332:40 *437:21 0
21 *413:49 *3025:A1 0
22 *413:57 *3025:A1 0
23 *426:55 *3025:A1 0.000176484
*RES
1 *3190:Q *437:6 40 
2 *437:6 *3025:A1 48.4563 
3 *437:6 *437:21 29.0022 
4 *437:21 *3628:f_clk0_divider[0] 3.82387 
5 *437:21 *3026:A0 22.6986 
*END

*D_NET *438 0.00898084
*CONN
*I *3628:ext_trim[20] I *D multimode_dll
*I *3080:A1 I *D sg13g2_mux2_1
*I *3081:A0 I *D sg13g2_mux2_1
*I *3245:Q O *D sg13g2_dfrbpq_1
*CAP
1 *3628:ext_trim[20] 0.000755001
2 *3080:A1 0
3 *3081:A0 0
4 *3245:Q 0
5 *438:18 0.00106892
6 *438:12 0.00145501
7 *438:4 0.00114109
8 *438:12 *514:10 0.00125249
9 *438:18 *439:18 7.57164e-05
10 *438:18 *589:72 0
11 *438:18 *590:40 0.000182109
12 *3080:A0 *438:18 1.54008e-05
13 *3628:clk2_phase_sel[3] *3628:ext_trim[20] 0
14 *3628:ext_trim[7] *3628:ext_trim[20] 0
15 *7:37 *3628:ext_trim[20] 0
16 *7:37 *438:12 0
17 *409:31 *3628:ext_trim[20] 0.000264184
18 *423:12 *3628:ext_trim[20] 0
19 *423:12 *438:12 0.00173318
20 *423:12 *438:18 0.00103774
21 *436:38 *438:18 0
*RES
1 *3245:Q *438:4 20 
2 *438:4 *438:12 48.3327 
3 *438:12 *438:18 31.7935 
4 *438:18 *3081:A0 40 
5 *438:12 *3080:A1 20 
6 *438:4 *3628:ext_trim[20] 47.2486 
*END

*D_NET *439 0.0159267
*CONN
*I *3081:A1 I *D sg13g2_mux2_1
*I *3628:ext_trim[21] I *D multimode_dll
*I *3082:A0 I *D sg13g2_mux2_1
*I *3246:Q O *D sg13g2_dfrbpq_1
*CAP
1 *3081:A1 0
2 *3628:ext_trim[21] 0.000866303
3 *3082:A0 0
4 *3246:Q 0.00107263
5 *439:30 0.000363963
6 *439:22 0.00201491
7 *439:18 0.00230405
8 *439:14 0.0016436
9 *439:10 0.00119683
10 *3628:ext_trim[21] *3628:ext_trim[22] 0.000469105
11 *3628:ext_trim[21] *441:8 0
12 *3628:ext_trim[21] *496:27 0
13 *3628:ext_trim[21] *610:82 0
14 *439:10 *514:10 0
15 *439:18 *514:10 0
16 *439:18 *590:40 0
17 *439:22 *3377:A 0
18 *439:22 *496:27 0
19 *439:22 *514:16 7.98567e-05
20 *439:22 *610:82 0
21 *439:30 *440:12 1.54008e-05
22 *439:30 *440:18 7.31655e-05
23 *439:30 *590:16 4.77699e-05
24 *3232:CLK *439:18 0.00034245
25 *7:37 *439:10 0
26 *35:12 *439:18 0.000545874
27 *299:28 *439:22 0.000824051
28 *339:16 *439:18 0.000386297
29 *339:34 *439:18 0.00151485
30 *385:72 *439:22 0.0010526
31 *423:12 *439:18 0.00103726
32 *438:18 *439:18 7.57164e-05
*RES
1 *3246:Q *439:10 48.2709 
2 *439:10 *439:14 20.9682 
3 *439:14 *439:18 37.9014 
4 *439:18 *439:22 29.1876 
5 *439:22 *439:30 42.8943 
6 *439:30 *3082:A0 20 
7 *439:22 *3628:ext_trim[21] 28.2323 
8 *439:14 *3081:A1 20 
*END

*D_NET *440 0.00382023
*CONN
*I *3628:ext_trim[22] I *D multimode_dll
*I *3082:A1 I *D sg13g2_mux2_1
*I *3083:A0 I *D sg13g2_mux2_1
*I *3247:Q O *D sg13g2_dfrbpq_1
*CAP
1 *3628:ext_trim[22] 0.00053157
2 *3082:A1 0
3 *3083:A0 0
4 *3247:Q 0
5 *440:18 0.000254918
6 *440:12 0.000790833
7 *440:6 0.00106749
8 *3628:ext_trim[22] *3628:ext_trim[23] 2.14736e-05
9 *3628:ext_trim[22] *496:27 0
10 *440:12 *590:16 0
11 uio_out[1] *440:18 0
12 uio_out[2] *440:18 0.000596277
13 *3628:ext_trim[21] *3628:ext_trim[22] 0.000469105
14 *342:94 *440:18 0
15 *422:56 *3628:ext_trim[22] 0
16 *424:31 *440:12 0
17 *439:30 *440:12 1.54008e-05
18 *439:30 *440:18 7.31655e-05
*RES
1 *3247:Q *440:6 40 
2 *440:6 *440:12 24.0376 
3 *440:12 *440:18 42.8222 
4 *440:18 *3083:A0 20 
5 *440:12 *3082:A1 20 
6 *440:6 *3628:ext_trim[22] 44.6582 
*END

*D_NET *441 0.00782644
*CONN
*I *3628:ext_trim[23] I *D multimode_dll
*I *3083:A1 I *D sg13g2_mux2_1
*I *3084:A0 I *D sg13g2_mux2_1
*I *3248:Q O *D sg13g2_dfrbpq_1
*CAP
1 *3628:ext_trim[23] 0.000237589
2 *3083:A1 0.000454173
3 *3084:A0 0.000278893
4 *3248:Q 0.000195264
5 *441:12 0.00106904
6 *441:8 0.000768831
7 *3083:A1 *595:73 0
8 *3083:A1 *595:83 0.000759305
9 *3084:A0 *3084:A1 0.000892341
10 *3084:A0 *587:76 7.99037e-05
11 *441:8 *492:31 0
12 *441:8 *610:82 0
13 *441:12 *3084:A1 0.000233261
14 *441:12 *496:23 0
15 *3628:ext_trim[21] *441:8 0
16 *3628:ext_trim[22] *3628:ext_trim[23] 2.14736e-05
17 *3628:ext_trim[8] *3628:ext_trim[23] 0.000228663
18 *3628:ext_trim[8] *441:12 0
19 *3628:ext_trim[9] *441:12 2.14736e-05
20 *38:14 *3628:ext_trim[23] 0.000108921
21 *317:16 *3083:A1 0.000823989
22 *422:38 *3628:ext_trim[23] 0.000109336
23 *425:14 *3084:A0 0.00075925
24 *425:14 *441:12 0.000784729
*RES
1 *3248:Q *441:8 41.6171 
2 *441:8 *441:12 4.3466 
3 *441:12 *3084:A0 44.8101 
4 *441:12 *3083:A1 45.5105 
5 *441:8 *3628:ext_trim[23] 42.2995 
*END

*D_NET *442 0.00753057
*CONN
*I *3628:ext_trim[24] I *D multimode_dll
*I *3085:A0 I *D sg13g2_mux2_1
*I *3084:A1 I *D sg13g2_mux2_1
*I *3249:Q O *D sg13g2_dfrbpq_1
*CAP
1 *3628:ext_trim[24] 0.000171934
2 *3085:A0 0.000423979
3 *3084:A1 0.000454171
4 *3249:Q 0.000323815
5 *442:34 0.00062032
6 *442:14 0.00155919
7 *442:8 0.00140443
8 *3084:A1 *496:23 0
9 *3085:A0 *3085:A1 0.000144875
10 *3085:A0 *588:65 0
11 *3628:ext_trim[24] *3628:ext_trim[25] 0
12 *442:14 *588:38 0.000251257
13 *442:14 *588:65 0
14 *3084:A0 *3084:A1 0.000892341
15 *3235:CLK *442:14 0.00053269
16 *51:18 *3084:A1 7.51285e-05
17 *157:10 *3084:A1 0
18 *239:24 *3085:A0 0.000233676
19 *342:39 *3085:A0 0.000209499
20 *342:39 *442:14 0
21 *344:32 *3084:A1 0
22 *345:26 *442:8 0
23 *427:53 *442:8 0
24 *441:12 *3084:A1 0.000233261
*RES
1 *3249:Q *442:8 42.8222 
2 *442:8 *442:14 49.6202 
3 *442:14 *3084:A1 45.3354 
4 *3249:Q *442:34 40.3193 
5 *442:34 *3085:A0 44.4702 
6 *442:34 *3628:ext_trim[24] 1.42397 
*END

*D_NET *443 0.0518074
*CONN
*I *3086:A0 I *D sg13g2_mux2_1
*I *3628:ext_trim[25] I *D multimode_dll
*I *3085:A1 I *D sg13g2_mux2_1
*I *3250:Q O *D sg13g2_dfrbpq_1
*CAP
1 *3086:A0 0
2 *3628:ext_trim[25] 0.00266759
3 *3085:A1 0.000451299
4 *3250:Q 0.000237776
5 *443:52 0
6 *443:48 0.00234208
7 *443:46 0.00234208
8 *443:44 0.0131485
9 *443:42 0.0131485
10 *443:40 0.00244971
11 *443:10 0.000906955
12 *443:10 *610:82 0
13 *443:40 *641:34 0
14 *3085:A0 *3085:A1 0.000144875
15 *3167:B *443:10 0.000208995
16 *3628:ext_trim[11] *3628:ext_trim[25] 0
17 *3628:ext_trim[11] *443:10 0
18 *3628:ext_trim[24] *3628:ext_trim[25] 0
19 *38:14 *443:40 0.00140413
20 *47:16 *443:40 0.000691925
21 *90:10 *443:10 4.75151e-05
22 *173:8 *3085:A1 0
23 *254:16 *443:44 0.0083688
24 *254:22 *443:44 0
25 *255:16 *443:44 0
26 *255:20 *443:44 0
27 *298:77 *3085:A1 0
28 *299:14 *443:40 0
29 *299:22 *443:40 0.00141577
30 *345:26 *443:10 0
31 *422:38 *443:40 0.00183088
32 *428:14 *443:10 0
33 *428:32 *3628:ext_trim[25] 0
*RES
1 *3250:Q *443:10 42.6162 
2 *443:10 *3085:A1 43.5432 
3 *443:10 *3628:ext_trim[25] 1.67118 
4 *3628:ext_trim[25] *443:40 49.2546 
5 *443:40 *443:42 20 
6 *443:42 *443:44 176.851 
7 *443:44 *443:46 20 
8 *443:46 *443:48 31.0339 
9 *443:48 *443:52 40 
10 *443:52 *3086:A0 20 
*END

*D_NET *444 0.0243742
*CONN
*I *3087:A0 I *D sg13g2_mux2_1
*I *3627:trim[0] I *D delay_line
*I *3086:A1 I *D sg13g2_mux2_1
*I *3251:Q O *D sg13g2_dfrbpq_1
*CAP
1 *3087:A0 8.08016e-05
2 *3627:trim[0] 0.000548024
3 *3086:A1 0
4 *3251:Q 0
5 *444:41 0.000628826
6 *444:39 0.0011973
7 *444:35 0.00567637
8 *444:14 0.000671015
9 *444:4 0.00515008
10 *3627:trim[0] *3627:trim[12] 0
11 *3627:trim[0] *482:10 0
12 *3627:trim[0] *605:52 0
13 *444:14 *3086:S 0
14 *444:14 *475:25 0.000209198
15 *444:14 *607:45 0
16 *444:14 *643:27 0
17 *444:35 *3108:S 0.000858296
18 *444:35 *3109:A0 0.000131399
19 *444:35 *3110:A1 0
20 *444:35 *3111:A0 0
21 *444:35 *3111:A1 0.000306984
22 *444:35 *454:20 0
23 *444:35 *469:14 0
24 *444:35 *469:24 0
25 *444:35 *474:10 0.000112528
26 *444:35 *604:14 0
27 *444:35 *604:20 0
28 *444:35 *643:27 4.77699e-05
29 *444:35 *644:38 0
30 *444:35 *644:49 0
31 *444:35 *644:63 0
32 *444:35 *645:22 0
33 *444:35 *645:32 0
34 *444:39 *482:10 0
35 *444:39 *605:52 0.00509299
36 *444:39 *645:16 0.00200688
37 *3274:D *444:35 0
38 *3275:D *444:35 0
39 *3276:D *444:35 0
40 *3277:D *444:35 2.21754e-05
41 *335:12 *444:14 0.00163361
*RES
1 *3251:Q *444:4 20 
2 *444:4 *444:14 49.6717 
3 *444:14 *3086:A1 20 
4 *444:4 *444:35 48.7458 
5 *444:35 *444:39 43.587 
6 *444:39 *444:41 20 
7 *444:41 *3627:trim[0] 46.2779 
8 *444:41 *3087:A0 20.7519 
*END

*D_NET *445 0.00627152
*CONN
*I *3088:A0 I *D sg13g2_mux2_1
*I *3627:trim[1] I *D delay_line
*I *3087:A1 I *D sg13g2_mux2_1
*I *3252:Q O *D sg13g2_dfrbpq_1
*CAP
1 *3088:A0 0
2 *3627:trim[1] 0.000417383
3 *3087:A1 0.000388629
4 *3252:Q 6.83256e-05
5 *445:25 0.000616851
6 *445:8 0.000656423
7 *3087:A1 *3099:A1 7.9225e-05
8 *3087:A1 *604:65 0.00161839
9 *3087:A1 *646:138 0.00162704
10 *3627:trim[1] *3627:trim[13] 0
11 *3627:trim[1] *604:77 0
12 *445:25 *3100:A0 7.9225e-05
13 *445:25 *446:49 0.000111567
14 *445:25 *604:65 0.000213286
15 *445:25 *646:138 0.000395177
*RES
1 *3252:Q *445:8 40.5356 
2 *445:8 *3087:A1 48.2709 
3 *445:8 *445:25 22.8016 
4 *445:25 *3627:trim[1] 44.4548 
5 *445:25 *3088:A0 20 
*END

*D_NET *446 0.0113726
*CONN
*I *3088:A1 I *D sg13g2_mux2_1
*I *3627:trim[2] I *D delay_line
*I *3089:A0 I *D sg13g2_mux2_1
*I *3253:Q O *D sg13g2_dfrbpq_1
*CAP
1 *3088:A1 0
2 *3627:trim[2] 0.00187902
3 *3089:A0 5.53706e-05
4 *3253:Q 0.000138873
5 *446:49 0.000563983
6 *446:27 0.00280429
7 *446:12 0.00111636
8 *446:8 0.000838571
9 *3089:A0 *3089:A1 4.77425e-05
10 *3627:trim[2] *3627:trim[14] 0
11 *446:12 *3089:A1 4.77425e-05
12 *446:27 *3089:A1 0
13 *446:27 *461:25 0
14 *446:49 *3254:RESET_B 0.000265989
15 *446:49 *461:10 0
16 *446:49 *645:87 0.000341621
17 *446:49 *645:98 0.000106894
18 *446:49 *646:138 0.000665651
19 *446:49 *646:146 0.000562627
20 *3253:D *446:49 0
21 *3266:CLK *446:27 0.000160341
22 *189:8 *3089:A0 0.000128334
23 *189:8 *446:27 0.000426676
24 *298:116 *446:27 0
25 *341:47 *3089:A0 0.00012816
26 *341:47 *446:27 0.000982833
27 *445:25 *446:49 0.000111567
*RES
1 *3253:Q *446:8 21.3802 
2 *446:8 *446:12 21.1845 
3 *446:12 *3089:A0 40.9167 
4 *446:12 *446:27 30.7326 
5 *446:27 *3627:trim[2] 43.1261 
6 *446:8 *446:49 47.8589 
7 *446:49 *3088:A1 20 
*END

*D_NET *447 0.0139307
*CONN
*I *3627:trim[3] I *D delay_line
*I *3090:A0 I *D sg13g2_mux2_1
*I *3089:A1 I *D sg13g2_mux2_1
*I *3254:Q O *D sg13g2_dfrbpq_1
*CAP
1 *3627:trim[3] 0.000257412
2 *3090:A0 0
3 *3089:A1 0.000770112
4 *3254:Q 0
5 *447:35 0.000442664
6 *447:29 0.00258547
7 *447:23 0.00240021
8 *447:21 0.00223864
9 *447:19 0.00223864
10 *447:6 0.000770112
11 *3627:trim[3] *3627:trim[15] 0
12 *3627:trim[3] *461:33 3.07212e-05
13 *3627:trim[3] *472:38 0.000620139
14 *447:21 *461:31 0
15 *447:29 *472:38 0.00028885
16 *447:35 *449:8 0
17 *447:35 *450:10 0.000504588
18 *447:35 *462:10 0
19 *447:35 *462:31 0.000182517
20 *3089:A0 *3089:A1 4.77425e-05
21 *189:8 *3089:A1 0.000505169
22 *446:12 *3089:A1 4.77425e-05
23 *446:27 *3089:A1 0
*RES
1 *3254:Q *447:6 40 
2 *447:6 *3089:A1 48.5181 
3 *447:6 *447:19 20 
4 *447:19 *447:21 30.385 
5 *447:21 *447:23 20 
6 *447:23 *447:29 48.9121 
7 *447:29 *447:35 45.2942 
8 *447:35 *3090:A0 20 
9 *447:23 *3627:trim[3] 43.8882 
*END

*D_NET *448 0.00410774
*CONN
*I *3027:A0 I *D sg13g2_mux2_1
*I *3026:A1 I *D sg13g2_mux2_1
*I *3628:f_clk0_divider[1] I *D multimode_dll
*I *3191:Q O *D sg13g2_dfrbpq_1
*CAP
1 *3027:A0 0.000179595
2 *3026:A1 0.000551525
3 *3628:f_clk0_divider[1] 0.000403063
4 *3191:Q 0.00085518
5 *448:23 0.00118324
6 *3026:A1 *3028:A0 0
7 *3026:A1 *470:14 0.000320604
8 *3026:A1 *470:16 7.48842e-05
9 *3027:A0 *3027:A1 0.000144257
10 *3628:f_clk0_divider[1] *3628:f_clk0_divider[2] 0
11 *3628:f_clk0_divider[1] *459:23 0
12 *3628:f_clk0_divider[1] *646:10 0
13 *448:23 *459:25 0
14 *448:23 *646:10 0
15 *448:23 *647:41 0.000395396
16 *115:10 *3027:A0 0
17 *115:10 *448:23 0
18 *291:11 *3026:A1 0
19 *291:172 *3026:A1 0
20 *291:172 *448:23 0
*RES
1 *3191:Q *3628:f_clk0_divider[1] 24.2848 
2 *3191:Q *448:23 44.9337 
3 *448:23 *3026:A1 46.0358 
4 *448:23 *3027:A0 41.8334 
*END

*D_NET *449 0.00936204
*CONN
*I *3627:trim[4] I *D delay_line
*I *3090:A1 I *D sg13g2_mux2_1
*I *3091:A0 I *D sg13g2_mux2_1
*I *3255:Q O *D sg13g2_dfrbpq_1
*CAP
1 *3627:trim[4] 4.28199e-05
2 *3090:A1 3.46921e-05
3 *3091:A0 0.000287208
4 *3255:Q 0
5 *449:34 0.00170304
6 *449:8 0.000989028
7 *449:6 0.00232735
8 *3091:A0 *450:10 0.000555141
9 *3091:A0 *450:16 7.49652e-05
10 *3091:A0 *463:10 0
11 *3627:trim[4] *3627:trim[16] 0
12 *449:8 *450:10 0.000427982
13 *449:8 *462:10 0
14 *449:34 *462:10 0
15 *449:34 *462:42 0.00291981
16 *447:35 *449:8 0
*RES
1 *3255:Q *449:6 40 
2 *449:6 *449:8 8.0134 
3 *449:8 *3091:A0 43.3578 
4 *449:8 *3090:A1 40.3193 
5 *449:6 *449:34 41.048 
6 *449:34 *3627:trim[4] 20.3605 
*END

*D_NET *450 0.00796944
*CONN
*I *3091:A1 I *D sg13g2_mux2_1
*I *3627:trim[5] I *D delay_line
*I *3092:A0 I *D sg13g2_mux2_1
*I *3256:Q O *D sg13g2_dfrbpq_1
*CAP
1 *3091:A1 0
2 *3627:trim[5] 0.000106083
3 *3092:A0 0
4 *3256:Q 0.000463833
5 *450:30 0.00128926
6 *450:16 0.00172195
7 *450:10 0.000790444
8 *3627:trim[5] *3627:trim[17] 0
9 *450:10 *3255:RESET_B 0
10 *450:10 *462:31 0
11 *450:16 *462:31 0
12 *450:16 *463:12 0.000112643
13 *450:30 *3104:A0 0.00125442
14 *450:30 *3257:RESET_B 0
15 *450:30 *3627:trim[6] 0
16 *450:30 *462:31 0
17 *450:30 *463:12 0.000229393
18 *450:30 *464:8 0
19 *450:30 *464:16 0
20 *450:30 *464:24 0
21 *450:30 *601:58 0
22 *450:30 *602:65 0
23 *450:30 *643:83 0.000176673
24 *3091:A0 *450:10 0.000555141
25 *3091:A0 *450:16 7.49652e-05
26 *3255:D *450:10 8.02267e-05
27 *3257:D *450:30 0.000181839
28 *338:66 *450:30 0
29 *447:35 *450:10 0.000504588
30 *449:8 *450:10 0.000427982
*RES
1 *3256:Q *450:10 46.386 
2 *450:10 *450:16 3.38613 
3 *450:16 *450:30 35.4938 
4 *450:30 *3092:A0 20 
5 *450:16 *3627:trim[5] 20.8416 
6 *450:10 *3091:A1 40 
*END

*D_NET *451 0.00758812
*CONN
*I *3627:trim[6] I *D delay_line
*I *3092:A1 I *D sg13g2_mux2_1
*I *3093:A0 I *D sg13g2_mux2_1
*I *3257:Q O *D sg13g2_dfrbpq_1
*CAP
1 *3627:trim[6] 0.00077302
2 *3092:A1 0
3 *3093:A0 0
4 *3257:Q 0.00025814
5 *451:18 0.00117102
6 *451:12 0.00129286
7 *451:10 0.001153
8 *3627:trim[6] *3104:A0 0
9 *3627:trim[6] *3627:trim[18] 0
10 *3627:trim[6] *464:12 0
11 *451:10 *601:54 0.000555736
12 *451:12 *601:54 0.000449257
13 *451:18 *3093:A1 1.54008e-05
14 *451:18 *601:33 0
15 *451:18 *601:39 0.00146483
16 *451:18 *601:54 0.000212631
17 *192:10 *3627:trim[6] 0.000242213
18 *338:66 *3627:trim[6] 0
19 *450:30 *3627:trim[6] 0
*RES
1 *3257:Q *451:10 44.1921 
2 *451:10 *451:12 2.0806 
3 *451:12 *451:18 35.965 
4 *451:18 *3093:A0 20 
5 *451:12 *3092:A1 40 
6 *451:10 *3627:trim[6] 26.4371 
*END

*D_NET *452 0.0110587
*CONN
*I *3627:trim[7] I *D delay_line
*I *3094:A0 I *D sg13g2_mux2_1
*I *3093:A1 I *D sg13g2_mux2_1
*I *3258:Q O *D sg13g2_dfrbpq_1
*CAP
1 *3627:trim[7] 0.000356699
2 *3094:A0 0.000175542
3 *3093:A1 3.24105e-05
4 *3258:Q 3.03695e-05
5 *452:29 0.000688863
6 *452:16 0.000871713
7 *452:8 0.00071305
8 *3094:A0 *466:18 0
9 *3094:A0 *602:42 0
10 *3094:A0 *643:54 0
11 *3627:trim[7] *3270:RESET_B 0
12 *3627:trim[7] *3627:trim[19] 0
13 *3627:trim[7] *465:16 0
14 *452:8 *602:65 0.000160341
15 *452:8 *642:42 0.00018211
16 *452:16 *3106:A0 0
17 *452:16 *466:12 0.000554579
18 *452:16 *602:65 0.000821813
19 *452:16 *642:12 0.00050146
20 *452:16 *642:23 0.000500717
21 *452:16 *642:42 0.000373627
22 *452:29 *466:12 0.000821311
23 *452:29 *466:18 0.00172958
24 *452:29 *602:42 0.00124972
25 *452:29 *602:59 0.00127941
26 *3259:D *3094:A0 0
27 *338:66 *3627:trim[7] 0
28 *451:18 *3093:A1 1.54008e-05
*RES
1 *3258:Q *452:8 40.8446 
2 *452:8 *452:16 27.1997 
3 *452:16 *3093:A1 20.1345 
4 *452:16 *452:29 32.169 
5 *452:29 *3094:A0 41.6171 
6 *452:8 *3627:trim[7] 23.5896 
*END

*D_NET *453 0.0071597
*CONN
*I *3627:trim[8] I *D delay_line
*I *3094:A1 I *D sg13g2_mux2_1
*I *3095:A0 I *D sg13g2_mux2_1
*I *3259:Q O *D sg13g2_dfrbpq_1
*CAP
1 *3627:trim[8] 0.000452795
2 *3094:A1 0
3 *3095:A0 0.000845099
4 *3259:Q 3.30826e-05
5 *453:10 0.00128541
6 *453:8 0.000926193
7 *3095:A0 *3107:A1 0
8 *3095:A0 *466:18 0.000240127
9 *3095:A0 *467:16 7.99037e-05
10 *3095:A0 *602:22 0
11 *3095:A0 *602:36 0
12 *3627:trim[8] *3627:trim[20] 0
13 *453:8 *3627:reset 0
14 *338:34 *3095:A0 0.000553998
15 *338:34 *3627:trim[8] 0.000800045
16 *338:34 *453:10 0.00160009
17 *338:43 *3627:trim[8] 0.000342951
*RES
1 *3259:Q *453:8 40.3193 
2 *453:8 *453:10 7.519 
3 *453:10 *3095:A0 48.7859 
4 *453:10 *3094:A1 40 
5 *453:8 *3627:trim[8] 26.937 
*END

*D_NET *454 0.00869866
*CONN
*I *3095:A1 I *D sg13g2_mux2_1
*I *3096:A0 I *D sg13g2_mux2_1
*I *3627:trim[9] I *D delay_line
*I *3260:Q O *D sg13g2_dfrbpq_1
*CAP
1 *3095:A1 0
2 *3096:A0 0.000288392
3 *3627:trim[9] 0.000521491
4 *3260:Q 0.000461667
5 *454:32 0.00118687
6 *454:20 0.00176778
7 *454:10 0.00185246
8 *3096:A0 *3273:RESET_B 0
9 *3096:A0 *455:12 0
10 *3096:A0 *644:63 0
11 *3627:trim[9] *3627:trim[21] 0
12 *3627:trim[9] *455:8 0
13 *454:10 *467:8 0
14 *454:20 *3095:S 1.53662e-05
15 *454:20 *467:8 0
16 *454:20 *467:16 0.00194385
17 *454:20 *467:24 0
18 *454:20 *643:27 0
19 *454:20 *643:33 0
20 *454:20 *643:103 0
21 *454:32 *3627:trim[21] 0.00020799
22 *454:32 *467:24 0.000127744
23 *454:32 *468:12 0.000180603
24 *3273:D *454:20 0.000144441
25 *183:10 *454:10 0
26 *183:10 *454:20 0
27 *184:10 *3627:trim[9] 0
28 *335:21 *454:32 0
29 *335:25 *3096:A0 0
30 *335:25 *454:32 0
31 *444:35 *454:20 0
*RES
1 *3260:Q *454:10 45.6753 
2 *454:10 *454:20 35.6766 
3 *454:20 *454:32 43.874 
4 *454:32 *3627:trim[9] 26.162 
5 *454:32 *3096:A0 22.6986 
6 *454:10 *3095:A1 40 
*END

*D_NET *455 0.0057926
*CONN
*I *3627:trim[10] I *D delay_line
*I *3097:A0 I *D sg13g2_mux2_1
*I *3096:A1 I *D sg13g2_mux2_1
*I *3261:Q O *D sg13g2_dfrbpq_1
*CAP
1 *3627:trim[10] 0.000618725
2 *3097:A0 0.000560422
3 *3096:A1 2.9025e-05
4 *3261:Q 0.000351283
5 *455:25 0.00194617
6 *455:12 0.000970559
7 *455:8 0.000525793
8 *3097:A0 *3097:A1 1.54556e-05
9 *3097:A0 *604:20 0
10 *3627:trim[10] *3109:A0 0
11 *3627:trim[10] *3627:sel[2] 0
12 *3627:trim[10] *3627:sel[3] 0
13 *455:25 *3109:A0 0
14 *455:25 *3627:sel[3] 0
15 *455:25 *604:20 4.77079e-05
16 *455:25 *644:38 0
17 *455:25 *644:49 0
18 *455:25 *644:63 0
19 *3096:A0 *455:12 0
20 *3627:trim[9] *455:8 0
21 *184:10 *455:8 0.000128977
22 *184:10 *455:12 0
23 *335:25 *455:25 0
24 *335:35 *3097:A0 0.00059848
25 *335:35 *455:25 0
26 *335:44 *3097:A0 0
*RES
1 *3261:Q *455:8 44.3054 
2 *455:8 *455:12 21.4008 
3 *455:12 *3096:A1 20.3502 
4 *455:12 *455:25 26.7568 
5 *455:25 *3097:A0 45.7268 
6 *455:25 *3627:trim[10] 5.17317 
*END

*D_NET *456 0.00527784
*CONN
*I *3098:A0 I *D sg13g2_mux2_1
*I *3627:trim[11] I *D delay_line
*I *3097:A1 I *D sg13g2_mux2_1
*I *3262:Q O *D sg13g2_dfrbpq_1
*CAP
1 *3098:A0 0
2 *3627:trim[11] 0.000152864
3 *3097:A1 0.000467483
4 *3262:Q 0.00189136
5 *456:38 0.00180583
6 *456:8 0.000705872
7 *3097:A1 *469:14 0
8 *3627:trim[11] *3627:trim[23] 0
9 *456:8 *469:8 7.86681e-05
10 *456:38 *3098:S 1.54008e-05
11 *456:38 *607:60 0
12 *3097:A0 *3097:A1 1.54556e-05
13 *335:44 *3097:A1 0.000144913
14 *341:36 *456:8 0
15 *341:36 *456:38 0
*RES
1 *3262:Q *456:8 40.7519 
2 *456:8 *3097:A1 44.532 
3 *456:8 *3627:trim[11] 1.46518 
4 *3262:Q *456:38 41.424 
5 *456:38 *3098:A0 20 
*END

*D_NET *457 0.00969457
*CONN
*I *3627:trim[12] I *D delay_line
*I *3099:A0 I *D sg13g2_mux2_1
*I *3098:A1 I *D sg13g2_mux2_1
*I *3263:Q O *D sg13g2_dfrbpq_1
*CAP
1 *3627:trim[12] 0.000665984
2 *3099:A0 3.52177e-05
3 *3098:A1 0.000778928
4 *3263:Q 0.000124198
5 *457:23 0.00130254
6 *457:8 0.00150446
7 *3098:A1 *646:138 0.00163558
8 *3627:trim[12] *645:65 0.000498564
9 *3627:trim[12] *645:87 0.000554906
10 *457:23 *646:138 0.00150813
11 *3627:trim[0] *3627:trim[12] 0
12 *336:60 *3098:A1 0
13 *336:60 *3627:trim[12] 0.00108606
14 *336:60 *457:23 0
*RES
1 *3263:Q *457:8 40.9682 
2 *457:8 *3098:A1 48.7035 
3 *457:8 *457:23 7.3439 
4 *457:23 *3099:A0 40.3193 
5 *457:23 *3627:trim[12] 29.2854 
*END

*D_NET *458 0.00760309
*CONN
*I *3627:trim[13] I *D delay_line
*I *3100:A0 I *D sg13g2_mux2_1
*I *3099:A1 I *D sg13g2_mux2_1
*I *3264:Q O *D sg13g2_dfrbpq_1
*CAP
1 *3627:trim[13] 0.00051929
2 *3100:A0 0.000384169
3 *3099:A1 0.000457809
4 *3264:Q 0
5 *458:21 0.00098711
6 *458:6 0.000541461
7 *3099:A1 *604:65 0.00156727
8 *3100:A0 *3100:A1 0.000145248
9 *3100:A0 *3100:S 0
10 *3100:A0 *3265:RESET_B 0
11 *3627:trim[13] *3101:S 8.00842e-05
12 *3627:trim[13] *604:77 0
13 *3627:trim[13] *646:138 0
14 *458:21 *604:65 0.000235556
15 *3087:A1 *3099:A1 7.9225e-05
16 *3627:trim[1] *3627:trim[13] 0
17 *298:116 *3099:A1 0.001568
18 *298:116 *3627:trim[13] 0.000638874
19 *298:116 *458:21 0.000319766
20 *445:25 *3100:A0 7.9225e-05
*RES
1 *3264:Q *458:6 40 
2 *458:6 *3099:A1 48.8065 
3 *458:6 *458:21 1.5862 
4 *458:21 *3100:A0 43.5638 
5 *458:21 *3627:trim[13] 26.2264 
*END

*D_NET *459 0.00477383
*CONN
*I *3027:A1 I *D sg13g2_mux2_1
*I *3028:A0 I *D sg13g2_mux2_1
*I *3628:f_clk0_divider[2] I *D multimode_dll
*I *3192:Q O *D sg13g2_dfrbpq_1
*CAP
1 *3027:A1 9.46759e-05
2 *3028:A0 0.00107993
3 *3628:f_clk0_divider[2] 0.000168574
4 *3192:Q 0.000583804
5 *459:25 0.00173098
6 *459:23 0.000971602
7 *3028:A0 *3029:A0 0
8 *3028:A0 *470:16 0
9 *3028:A0 *605:14 0
10 *459:25 *647:41 0
11 *3026:A1 *3028:A0 0
12 *3027:A0 *3027:A1 0.000144257
13 *3628:f_clk0_divider[1] *3628:f_clk0_divider[2] 0
14 *3628:f_clk0_divider[1] *459:23 0
15 *115:10 *3027:A1 0
16 *285:18 *3028:A0 0
17 *285:18 *459:25 0
18 *290:13 *3028:A0 0
19 *291:28 *3028:A0 0
20 *448:23 *459:25 0
*RES
1 *3192:Q *3628:f_clk0_divider[2] 21.8772 
2 *3192:Q *459:23 44.2127 
3 *459:23 *459:25 6.0358 
4 *459:25 *3028:A0 49.7541 
5 *459:25 *3027:A1 40.9682 
*END

*D_NET *460 0.00854532
*CONN
*I *3627:trim[14] I *D delay_line
*I *3101:A0 I *D sg13g2_mux2_1
*I *3100:A1 I *D sg13g2_mux2_1
*I *3265:Q O *D sg13g2_dfrbpq_1
*CAP
1 *3627:trim[14] 0.00208874
2 *3101:A0 0.000371307
3 *3100:A1 0.000341327
4 *3265:Q 3.55057e-05
5 *460:38 0.0030435
6 *460:10 0.00109718
7 *460:8 0.00137481
8 *3100:A1 *3265:RESET_B 0
9 *3101:A0 *3101:A1 4.77079e-05
10 *3101:A0 *3265:RESET_B 0
11 *3627:trim[14] *461:31 0
12 *460:10 *3254:RESET_B 0
13 *460:38 *461:25 0
14 *460:38 *646:146 0
15 analog_pin2 *3627:trim[14] 0
16 analog_pin2 *460:38 0
17 *3100:A0 *3100:A1 0.000145248
18 *3253:D *3101:A0 0
19 *3265:D *3100:A1 0
20 *3265:CLK *3101:A0 0
21 *3265:CLK *460:8 0
22 *3627:trim[2] *3627:trim[14] 0
23 *336:60 *3100:A1 0
*RES
1 *3265:Q *460:8 40.3193 
2 *460:8 *460:10 4.5526 
3 *460:10 *3100:A1 44.0376 
4 *460:10 *3101:A0 43.5149 
5 *460:8 *460:38 30.2382 
6 *460:38 *3627:trim[14] 45.8144 
*END

*D_NET *461 0.0158183
*CONN
*I *3627:trim[15] I *D delay_line
*I *3102:A0 I *D sg13g2_mux2_1
*I *3101:A1 I *D sg13g2_mux2_1
*I *3266:Q O *D sg13g2_dfrbpq_1
*CAP
1 *3627:trim[15] 6.03004e-05
2 *3102:A0 0
3 *3101:A1 3.02508e-05
4 *3266:Q 0
5 *461:39 0.000717073
6 *461:33 0.00311818
7 *461:31 0.00486309
8 *461:25 0.00255757
9 *461:10 0.000874747
10 *461:4 0.00100039
11 *461:10 *646:146 0
12 *3101:A0 *3101:A1 4.77079e-05
13 *3267:CLK *461:39 0
14 *3621:A *461:10 0.0001447
15 *3627:trim[14] *461:31 0
16 *3627:trim[3] *3627:trim[15] 0
17 *3627:trim[3] *461:33 3.07212e-05
18 *298:116 *461:10 0.00237359
19 *340:43 *461:39 0
20 *446:27 *461:25 0
21 *446:49 *461:10 0
22 *447:21 *461:31 0
23 *460:38 *461:25 0
*RES
1 *3266:Q *461:4 20 
2 *461:4 *461:10 31.948 
3 *461:10 *3101:A1 40.3193 
4 *461:4 *461:25 41.8334 
5 *461:25 *461:31 32.5532 
6 *461:31 *461:33 32.4398 
7 *461:33 *461:39 49.0022 
8 *461:39 *3102:A0 20 
9 *461:31 *3627:trim[15] 20.6077 
*END

*D_NET *462 0.0121855
*CONN
*I *3627:trim[16] I *D delay_line
*I *3103:A0 I *D sg13g2_mux2_1
*I *3102:A1 I *D sg13g2_mux2_1
*I *3267:Q O *D sg13g2_dfrbpq_1
*CAP
1 *3627:trim[16] 7.74509e-05
2 *3103:A0 0
3 *3102:A1 0.000273956
4 *3267:Q 0
5 *462:42 0.00192581
6 *462:31 0.000681766
7 *462:10 0.00165335
8 *462:6 0.00254599
9 *3102:A1 *3102:S 0.000255692
10 *3102:A1 *3255:RESET_B 0
11 *462:10 *3267:RESET_B 0
12 *462:10 *642:75 0
13 *462:31 *3102:S 0.000448499
14 *462:31 *601:58 0.000663882
15 *462:31 *601:69 0.000556783
16 *3255:D *462:31 0
17 *3267:D *3102:A1 0
18 *3267:CLK *462:10 0
19 *3627:trim[4] *3627:trim[16] 0
20 *4:15 *462:42 0
21 *340:43 *462:10 0
22 *447:35 *462:10 0
23 *447:35 *462:31 0.000182517
24 *449:8 *462:10 0
25 *449:34 *462:10 0
26 *449:34 *462:42 0.00291981
27 *450:10 *462:31 0
28 *450:16 *462:31 0
29 *450:30 *462:31 0
*RES
1 *3267:Q *462:6 40 
2 *462:6 *462:10 28.2606 
3 *462:10 *3102:A1 22.7816 
4 *462:10 *462:31 48.7447 
5 *462:31 *3103:A0 20 
6 *462:6 *462:42 42.9329 
7 *462:42 *3627:trim[16] 20.6077 
*END

*D_NET *463 0.00482428
*CONN
*I *3627:trim[17] I *D delay_line
*I *3103:A1 I *D sg13g2_mux2_1
*I *3104:A0 I *D sg13g2_mux2_1
*I *3268:Q O *D sg13g2_dfrbpq_1
*CAP
1 *3627:trim[17] 7.31492e-05
2 *3103:A1 8.54025e-05
3 *3104:A0 0.000423516
4 *3268:Q 0.000646849
5 *463:12 0.000813817
6 *463:10 0.0010249
7 *3103:A1 *3627:trim[18] 0
8 *463:10 *3090:S 8.00842e-05
9 *463:10 *3102:S 0
10 *3091:A0 *463:10 0
11 *3256:CLK *463:10 8.01118e-05
12 *3627:trim[5] *3627:trim[17] 0
13 *3627:trim[6] *3104:A0 0
14 *179:10 *463:10 0
15 *450:16 *463:12 0.000112643
16 *450:30 *3104:A0 0.00125442
17 *450:30 *463:12 0.000229393
*RES
1 *3268:Q *463:10 45.0435 
2 *463:10 *463:12 3.73633 
3 *463:12 *3104:A0 46.2624 
4 *463:12 *3103:A1 40.7519 
5 *463:10 *3627:trim[17] 20.7133 
*END

*D_NET *464 0.0057841
*CONN
*I *3627:trim[18] I *D delay_line
*I *3104:A1 I *D sg13g2_mux2_1
*I *3105:A0 I *D sg13g2_mux2_1
*I *3269:Q O *D sg13g2_dfrbpq_1
*CAP
1 *3627:trim[18] 0.000179523
2 *3104:A1 0
3 *3105:A0 0
4 *3269:Q 0.000184749
5 *464:24 0.000915225
6 *464:16 0.00114797
7 *464:12 0.000567114
8 *464:8 0.000339597
9 *464:8 *601:58 0
10 *464:8 *642:53 0
11 *464:12 *3103:S 0
12 *464:12 *601:54 0
13 *464:24 *3105:A1 0.000209641
14 *464:24 *3270:RESET_B 7.9225e-05
15 *464:24 *643:83 0
16 *3103:A1 *3627:trim[18] 0
17 *3258:CLK *464:24 0.000305482
18 *3627:trim[6] *3627:trim[18] 0
19 *3627:trim[6] *464:12 0
20 *192:10 *464:12 0
21 *193:10 *464:24 0
22 *338:56 *464:24 0.000607524
23 *338:66 *464:24 0.00124806
24 *450:30 *464:8 0
25 *450:30 *464:16 0
26 *450:30 *464:24 0
*RES
1 *3269:Q *464:8 42.0806 
2 *464:8 *464:12 21.6171 
3 *464:12 *464:16 22.575 
4 *464:16 *464:24 32.6072 
5 *464:24 *3105:A0 20 
6 *464:16 *3104:A1 40 
7 *464:12 *3627:trim[18] 1.85915 
*END

*D_NET *465 0.00772157
*CONN
*I *3627:trim[19] I *D delay_line
*I *3105:A1 I *D sg13g2_mux2_1
*I *3106:A0 I *D sg13g2_mux2_1
*I *3270:Q O *D sg13g2_dfrbpq_1
*CAP
1 *3627:trim[19] 0.000221309
2 *3105:A1 0.000130543
3 *3106:A0 0.000539505
4 *3270:Q 0.000154977
5 *465:16 0.00116331
6 *465:10 0.000714571
7 *465:8 0.000154977
8 *3106:A0 *601:25 0
9 *3106:A0 *602:65 0
10 *3106:A0 *642:12 0.000929208
11 *465:8 *643:83 0
12 *465:16 *602:65 0
13 *3627:trim[7] *3627:trim[19] 0
14 *3627:trim[7] *465:16 0
15 *193:10 *3105:A1 0
16 *193:10 *3106:A0 0.000181694
17 *193:10 *465:16 0.000181608
18 *338:66 *465:8 0.000395897
19 *340:10 *3106:A0 0.00194378
20 *340:10 *465:16 0.000800546
21 *452:16 *3106:A0 0
22 *464:24 *3105:A1 0.000209641
*RES
1 *3270:Q *465:8 41.8334 
2 *465:8 *465:10 20 
3 *465:10 *465:16 25.6444 
4 *465:16 *3106:A0 49.3215 
5 *465:16 *3105:A1 41.4008 
6 *465:10 *3627:trim[19] 2.50805 
*END

*D_NET *466 0.00821883
*CONN
*I *3627:trim[20] I *D delay_line
*I *3106:A1 I *D sg13g2_mux2_1
*I *3107:A0 I *D sg13g2_mux2_1
*I *3271:Q O *D sg13g2_dfrbpq_1
*CAP
1 *3627:trim[20] 0.000183408
2 *3106:A1 5.6545e-05
3 *3107:A0 0
4 *3271:Q 2.83098e-05
5 *466:18 0.00103623
6 *466:12 0.00165475
7 *466:6 0.000773693
8 *3106:A1 *3106:S 0
9 *466:12 *601:25 0.000585427
10 *466:12 *602:59 0
11 *466:12 *642:12 0
12 *466:12 *642:23 0.000122871
13 *466:18 *3107:A1 1.53311e-05
14 *466:18 *601:10 0.000181608
15 *466:18 *601:25 0.000235055
16 *466:18 *602:36 0
17 *466:18 *602:42 0
18 *3094:A0 *466:18 0
19 *3095:A0 *466:18 0.000240127
20 *3270:D *3627:trim[20] 0
21 *3270:D *466:12 0
22 *3627:trim[8] *3627:trim[20] 0
23 *307:10 *466:18 0
24 *338:34 *466:18 0
25 *340:10 *466:18 0
26 *452:16 *466:12 0.000554579
27 *452:29 *466:12 0.000821311
28 *452:29 *466:18 0.00172958
*RES
1 *3271:Q *466:6 20.3502 
2 *466:6 *466:12 27.9001 
3 *466:12 *466:18 33.5548 
4 *466:18 *3107:A0 20 
5 *466:12 *3106:A1 40.4476 
6 *466:6 *3627:trim[20] 2.07545 
*END

*D_NET *467 0.0084317
*CONN
*I *3107:A1 I *D sg13g2_mux2_1
*I *3627:trim[21] I *D delay_line
*I *3108:A0 I *D sg13g2_mux2_1
*I *3272:Q O *D sg13g2_dfrbpq_1
*CAP
1 *3107:A1 0.000302682
2 *3627:trim[21] 0.000631177
3 *3108:A0 0
4 *3272:Q 0.000398115
5 *467:24 0.000157411
6 *467:16 0.00218371
7 *467:8 0.00209592
8 *3627:trim[21] *3108:S 0
9 *3627:trim[21] *468:12 0
10 *467:8 *643:48 0
11 *467:16 *602:22 0
12 *467:24 *3108:A1 1.54008e-05
13 *467:24 *3108:S 0
14 *3095:A0 *3107:A1 0
15 *3095:A0 *467:16 7.99037e-05
16 *3260:CLK *467:16 0
17 *3272:CLK *467:8 0
18 *3273:D *3627:trim[21] 0.000160359
19 *3273:D *467:16 0.000112099
20 *3627:trim[9] *3627:trim[21] 0
21 *183:10 *467:16 0
22 *335:21 *467:16 0
23 *454:10 *467:8 0
24 *454:20 *467:8 0
25 *454:20 *467:16 0.00194385
26 *454:20 *467:24 0
27 *454:32 *3627:trim[21] 0.00020799
28 *454:32 *467:24 0.000127744
29 *466:18 *3107:A1 1.53311e-05
*RES
1 *3272:Q *467:8 44.3054 
2 *467:8 *467:16 35.9135 
3 *467:16 *467:24 41.6583 
4 *467:24 *3108:A0 20 
5 *467:16 *3627:trim[21] 27.5319 
6 *467:8 *3107:A1 42.6986 
*END

*D_NET *468 0.00503106
*CONN
*I *3627:trim[22] I *D delay_line
*I *3109:A0 I *D sg13g2_mux2_1
*I *3108:A1 I *D sg13g2_mux2_1
*I *3273:Q O *D sg13g2_dfrbpq_1
*CAP
1 *3627:trim[22] 0.000129918
2 *3109:A0 0.000794707
3 *3108:A1 3.39489e-05
4 *3273:Q 0.00139325
5 *468:32 0.00173906
6 *468:12 0.000612767
7 *3108:A1 *3108:S 0
8 *3109:A0 *3627:sel[2] 0
9 *3109:A0 *3627:sel[3] 0
10 *3109:A0 *473:8 0
11 *3627:trim[22] *3627:sel[2] 0
12 *468:32 *3627:sel[2] 0
13 *3627:trim[10] *3109:A0 0
14 *3627:trim[21] *468:12 0
15 *341:19 *3109:A0 0
16 *444:35 *3109:A0 0.000131399
17 *454:32 *468:12 0.000180603
18 *455:25 *3109:A0 0
19 *467:24 *3108:A1 1.54008e-05
*RES
1 *3273:Q *468:12 46.6126 
2 *468:12 *3108:A1 40.3193 
3 *3273:Q *468:32 48.8889 
4 *468:32 *3109:A0 47.7456 
5 *468:32 *3627:trim[22] 1.21798 
*END

*D_NET *469 0.00459964
*CONN
*I *3627:trim[23] I *D delay_line
*I *3110:A0 I *D sg13g2_mux2_1
*I *3109:A1 I *D sg13g2_mux2_1
*I *3274:Q O *D sg13g2_dfrbpq_1
*CAP
1 *3627:trim[23] 0.000182911
2 *3110:A0 0
3 *3109:A1 0
4 *3274:Q 0.000254765
5 *469:24 0.000366007
6 *469:14 0.00164651
7 *469:8 0.00171818
8 *469:14 *645:32 0
9 *469:24 *3109:S 0.000129009
10 *469:24 *3110:A1 4.77079e-05
11 *469:24 *3111:A0 0.000175872
12 *469:24 *604:20 0
13 *469:24 *644:36 0
14 *3097:A1 *469:14 0
15 *3627:trim[11] *3627:trim[23] 0
16 *185:10 *469:14 0
17 *285:5 *3627:trim[23] 0
18 *285:12 *3627:trim[23] 0
19 *285:12 *469:14 0
20 *341:36 *469:8 0
21 *444:35 *469:14 0
22 *444:35 *469:24 0
23 *456:8 *469:8 7.86681e-05
*RES
1 *3274:Q *469:8 42.6986 
2 *469:8 *469:14 32.8132 
3 *469:14 *469:24 43.5226 
4 *469:24 *3109:A1 20 
5 *469:14 *3110:A0 20 
6 *469:8 *3627:trim[23] 1.71238 
*END

*D_NET *470 0.00513264
*CONN
*I *3628:f_clk0_divider[3] I *D multimode_dll
*I *3028:A1 I *D sg13g2_mux2_1
*I *3029:A0 I *D sg13g2_mux2_1
*I *3193:Q O *D sg13g2_dfrbpq_1
*CAP
1 *3628:f_clk0_divider[3] 0.000730727
2 *3028:A1 0
3 *3029:A0 0.00078477
4 *3193:Q 0.000392869
5 *470:16 0.0010779
6 *470:14 0.00141673
7 *3029:A0 *481:27 0
8 *3029:A0 *598:116 0.00018261
9 *3026:A0 *3628:f_clk0_divider[3] 0
10 *3026:A1 *470:14 0.000320604
11 *3026:A1 *470:16 7.48842e-05
12 *3028:A0 *3029:A0 0
13 *3028:A0 *470:16 0
14 *3191:D *470:14 0.000143384
15 *3628:f_clk0_divider[0] *3628:f_clk0_divider[3] 8.15994e-06
16 *286:6 *3628:f_clk0_divider[3] 0
17 *286:19 *3628:f_clk0_divider[3] 0
18 *290:13 *3029:A0 0
19 *291:22 *470:14 0
*RES
1 *3193:Q *470:14 44.4646 
2 *470:14 *470:16 2.8222 
3 *470:16 *3029:A0 47.8383 
4 *470:16 *3028:A1 40 
5 *470:14 *3628:f_clk0_divider[3] 26.6358 
*END

*D_NET *471 0.0152837
*CONN
*I *3627:sel[0] I *D delay_line
*I *3110:A1 I *D sg13g2_mux2_1
*I *3111:A0 I *D sg13g2_mux2_1
*I *3275:Q O *D sg13g2_dfrbpq_1
*CAP
1 *3627:sel[0] 0
2 *3110:A1 3.31061e-05
3 *3111:A0 0.00090229
4 *3275:Q 0
5 *471:40 0.00369105
6 *471:38 0.00416568
7 *471:8 0.00163833
8 *471:6 0.00117756
9 *3111:A0 *3110:S 0
10 *3111:A0 *3111:A1 0.000306984
11 *3111:A0 *473:12 0
12 *3111:A0 *603:34 0
13 *3111:A0 *603:40 0
14 *3111:A0 *644:36 0
15 *471:8 *3627:sel[3] 0
16 *471:8 *644:36 0
17 *471:40 *472:38 0.00311386
18 *3277:D *3111:A0 3.12952e-05
19 *444:35 *3110:A1 0
20 *444:35 *3111:A0 0
21 *469:24 *3110:A1 4.77079e-05
22 *469:24 *3111:A0 0.000175872
*RES
1 *3275:Q *471:6 40 
2 *471:6 *471:8 7.519 
3 *471:8 *3111:A0 49.0022 
4 *471:8 *3110:A1 40.3193 
5 *471:6 *471:38 45.7268 
6 *471:38 *471:40 42.5313 
7 *471:40 *3627:sel[0] 40 
*END

*D_NET *472 0.0138513
*CONN
*I *3627:sel[1] I *D delay_line
*I *3111:A1 I *D sg13g2_mux2_1
*I *3112:A0 I *D sg13g2_mux2_1
*I *3276:Q O *D sg13g2_dfrbpq_1
*CAP
1 *3627:sel[1] 0
2 *3111:A1 0.000162071
3 *3112:A0 0.000205023
4 *3276:Q 0
5 *472:38 0.00366428
6 *472:32 0.00366428
7 *472:8 0.000942942
8 *472:6 0.000575848
9 *3112:A0 *473:8 0
10 *3112:A0 *603:34 0
11 *3112:A0 *603:40 0
12 *3112:A0 *603:49 0
13 *472:8 *3096:S 0
14 *472:8 *473:8 0
15 *3111:A0 *3111:A1 0.000306984
16 *3627:trim[3] *472:38 0.000620139
17 *444:35 *3111:A1 0.000306984
18 *447:29 *472:38 0.00028885
19 *471:40 *472:38 0.00311386
*RES
1 *3276:Q *472:6 40 
2 *472:6 *472:8 6.7774 
3 *472:8 *3112:A0 42.1527 
4 *472:8 *3111:A1 42.0497 
5 *472:6 *472:32 40 
6 *472:32 *472:38 43.2008 
7 *472:38 *3627:sel[1] 40 
*END

*D_NET *473 0.00444559
*CONN
*I *3627:sel[2] I *D delay_line
*I *3112:A1 I *D sg13g2_mux2_1
*I *3113:A0 I *D sg13g2_mux2_1
*I *3277:Q O *D sg13g2_dfrbpq_1
*CAP
1 *3627:sel[2] 0.000378733
2 *3112:A1 0
3 *3113:A0 0
4 *3277:Q 0.00122404
5 *473:20 0.000742821
6 *473:12 0.000877721
7 *473:8 0.000980204
8 *473:12 *603:34 0
9 *473:20 *3114:A0 0.000242071
10 *473:20 *3114:S 0
11 *473:20 *644:18 0
12 *3109:A0 *3627:sel[2] 0
13 *3109:A0 *473:8 0
14 *3111:A0 *473:12 0
15 *3112:A0 *473:8 0
16 *3627:trim[10] *3627:sel[2] 0
17 *3627:trim[22] *3627:sel[2] 0
18 *341:10 *473:20 0
19 *341:19 *473:8 0
20 *341:32 *473:8 0
21 *341:36 *3627:sel[2] 0
22 *468:32 *3627:sel[2] 0
23 *472:8 *473:8 0
*RES
1 *3277:Q *473:8 48.2606 
2 *473:8 *473:12 21.1845 
3 *473:12 *473:20 47.9001 
4 *473:20 *3113:A0 20 
5 *473:12 *3112:A1 20 
6 *3277:Q *3627:sel[2] 42.8969 
*END

*D_NET *474 0.00733447
*CONN
*I *3627:sel[3] I *D delay_line
*I *3113:A1 I *D sg13g2_mux2_1
*I *3114:A0 I *D sg13g2_mux2_1
*I *3278:Q O *D sg13g2_dfrbpq_1
*CAP
1 *3627:sel[3] 0.000985864
2 *3113:A1 0
3 *3114:A0 0.000601951
4 *3278:Q 0.000108741
5 *474:16 0.00126899
6 *474:10 0.00176164
7 *3114:A0 *3114:A1 0
8 *3114:A0 *3114:S 0
9 *3114:A0 *3547:A 0
10 *3114:A0 *475:14 1.54282e-05
11 *3114:A0 *475:25 0
12 *3114:A0 *644:18 0.000307099
13 *3114:A0 *647:70 0
14 *3627:sel[3] *604:20 0.000393247
15 *3627:sel[3] *644:36 0.000127744
16 *3627:sel[3] *644:38 0
17 *474:16 *603:12 0
18 *474:16 *604:20 0.00140916
19 *474:16 *647:70 0
20 *3109:A0 *3627:sel[3] 0
21 *3274:D *3627:sel[3] 0
22 *3278:D *474:16 0
23 *3627:trim[10] *3627:sel[3] 0
24 *338:27 *3114:A0 0
25 *341:10 *474:16 0
26 *341:19 *3627:sel[3] 0
27 *341:19 *474:16 0
28 *444:35 *474:10 0.000112528
29 *455:25 *3627:sel[3] 0
30 *471:8 *3627:sel[3] 0
31 *473:20 *3114:A0 0.000242071
*RES
1 *3278:Q *474:10 41.2875 
2 *474:10 *474:16 28.9828 
3 *474:16 *3114:A0 26.0488 
4 *474:16 *3113:A1 20 
5 *474:10 *3627:sel[3] 49.458 
*END

*D_NET *475 0.024931
*CONN
*I *3625:A I *D mux
*I *3115:A0 I *D sg13g2_mux2_1
*I *3114:A1 I *D sg13g2_mux2_1
*I *3279:Q O *D sg13g2_dfrbpq_1
*CAP
1 *3625:A 0.000164888
2 *3115:A0 0.000109564
3 *3114:A1 2.79713e-05
4 *3279:Q 0.000382693
5 *475:35 0.000964172
6 *475:31 0.00580537
7 *475:29 0.00601714
8 *475:25 0.00460465
9 *475:14 0.00388055
10 *475:8 0.000532108
11 *3115:A0 *3115:A1 0.000122627
12 *3115:A0 *3281:RESET_B 7.99037e-05
13 *3625:A *3281:RESET_B 0
14 *3625:A *476:25 0.0002413
15 *475:25 *3086:S 0
16 *475:25 *3251:RESET_B 0
17 *475:25 *602:12 0
18 *475:25 *607:45 0
19 *475:35 *3115:A1 7.48842e-05
20 *475:35 *476:8 0.00149487
21 *475:35 *477:10 0
22 *3114:A0 *3114:A1 0
23 *3114:A0 *475:14 1.54282e-05
24 *3114:A0 *475:25 0
25 *3251:D *475:25 0
26 *3424:A *475:25 0
27 *202:10 *475:8 7.51285e-05
28 *202:10 *475:14 0.000128614
29 *307:6 *475:25 0
30 *325:8 *475:31 0
31 *327:16 *475:31 0
32 *327:16 *475:35 0
33 *331:10 *475:31 0
34 *338:27 *475:14 0
35 *338:27 *475:25 0
36 *444:14 *475:25 0.000209198
*RES
1 *3279:Q *475:8 44.7998 
2 *475:8 *475:14 21.751 
3 *475:14 *3114:A1 20.3502 
4 *475:14 *475:25 41.3957 
5 *475:25 *475:29 29.991 
6 *475:29 *475:31 60.1726 
7 *475:31 *475:35 10.3103 
8 *475:35 *3115:A0 41.133 
9 *475:35 *3625:A 41.7355 
*END

*D_NET *476 0.00474003
*CONN
*I *3625:B I *D mux
*I *3116:A0 I *D sg13g2_mux2_1
*I *3115:A1 I *D sg13g2_mux2_1
*I *3280:Q O *D sg13g2_dfrbpq_1
*CAP
1 *3625:B 0
2 *3116:A0 0
3 *3115:A1 5.71238e-05
4 *3280:Q 0.000460376
5 *476:33 0.000190742
6 *476:25 0.00044643
7 *476:8 0.000773188
8 *476:8 *3281:RESET_B 0
9 *476:8 *646:83 0.000235228
10 *476:25 *479:49 0
11 *476:25 *653:14 0
12 *476:33 *3116:S 0
13 *476:33 *477:10 0.000392817
14 *476:33 *477:14 1.54008e-05
15 *476:33 *477:25 3.23417e-05
16 *3115:A0 *3115:A1 0.000122627
17 *3281:CLK *476:25 0
18 *3625:A *476:25 0.0002413
19 *327:16 *476:8 0
20 *394:12 *3115:A1 0.000127744
21 *394:12 *476:8 7.49652e-05
22 *475:35 *3115:A1 7.48842e-05
23 *475:35 *476:8 0.00149487
*RES
1 *3280:Q *476:8 47.0246 
2 *476:8 *3115:A1 40.9167 
3 *476:8 *476:25 22.5546 
4 *476:25 *476:33 42.3999 
5 *476:33 *3116:A0 20 
6 *476:25 *3625:B 20 
*END

*D_NET *477 0.00439064
*CONN
*I *3626:A I *D mux_inv
*I *3117:A0 I *D sg13g2_mux2_1
*I *3116:A1 I *D sg13g2_mux2_1
*I *3281:Q O *D sg13g2_dfrbpq_1
*CAP
1 *3626:A 1.2265e-05
2 *3117:A0 0.000367646
3 *3116:A1 0
4 *3281:Q 0.000657231
5 *477:25 0.000978539
6 *477:14 0.00063119
7 *477:10 0.000689793
8 *3117:A0 *3117:A1 0.000306639
9 *3117:A0 *478:14 0
10 *3117:A0 *635:66 0.000306781
11 *477:14 *478:12 0
12 *477:25 *478:12 0
13 *3281:CLK *477:10 0
14 *128:8 *477:25 0
15 *205:8 *3117:A0 0
16 *324:12 *477:10 0
17 *324:12 *477:25 0
18 *394:12 *477:25 0
19 *394:18 *3117:A0 0
20 *394:18 *477:25 0
21 *475:35 *477:10 0
22 *476:33 *477:10 0.000392817
23 *476:33 *477:14 1.54008e-05
24 *476:33 *477:25 3.23417e-05
*RES
1 *3281:Q *477:10 47.004 
2 *477:10 *477:14 20.3193 
3 *477:14 *3116:A1 20 
4 *477:14 *477:25 26.1723 
5 *477:25 *3117:A0 44.035 
6 *477:25 *3626:A 40.1107 
*END

*D_NET *478 0.00333977
*CONN
*I *3626:B I *D mux_inv
*I *3117:A1 I *D sg13g2_mux2_1
*I *3118:A0 I *D sg13g2_mux2_1
*I *3282:Q O *D sg13g2_dfrbpq_1
*CAP
1 *3626:B 2.00561e-05
2 *3117:A1 0.000277694
3 *3118:A0 0.000310511
4 *3282:Q 0.000735187
5 *478:14 0.000745535
6 *478:12 0.000912574
7 *3117:A1 *480:10 0
8 *3117:A1 *635:66 0
9 *3117:A1 *637:76 0
10 *3118:A0 *3118:S 0
11 *3626:B *3626:SEL 3.15716e-05
12 *478:12 *479:49 0
13 *3117:A0 *3117:A1 0.000306639
14 *3117:A0 *478:14 0
15 *3282:D *3118:A0 0
16 *324:12 *3118:A0 0
17 *324:12 *478:12 0
18 *324:12 *478:14 0
19 *337:39 *478:12 0
20 *477:14 *478:12 0
21 *477:25 *478:12 0
*RES
1 *3282:Q *478:12 47.0143 
2 *478:12 *478:14 1.5862 
3 *478:14 *3118:A0 42.7398 
4 *478:14 *3117:A1 42.6986 
5 *478:12 *3626:B 40.2112 
*END

*D_NET *479 0.00707999
*CONN
*I *3625:SEL I *D mux
*I *3626:SEL I *D mux_inv
*I *3118:A1 I *D sg13g2_mux2_1
*I *3119:A0 I *D sg13g2_mux2_1
*I *3283:Q O *D sg13g2_dfrbpq_1
*CAP
1 *3625:SEL 0
2 *3626:SEL 0.00013668
3 *3118:A1 0
4 *3119:A0 0.000575408
5 *3283:Q 0
6 *479:49 0.000393611
7 *479:12 0.00079345
8 *479:8 0.000795406
9 *479:4 0.000834295
10 *3119:A0 *3118:S 0
11 *3119:A0 *635:25 0.000232594
12 *3626:SEL *637:76 0.000213831
13 *479:49 *3281:RESET_B 0
14 *3209:CLK *3119:A0 0
15 *3284:CLK *3119:A0 0
16 *3626:B *3626:SEL 3.15716e-05
17 *324:12 *3119:A0 0
18 *324:12 *479:8 0.00114184
19 *324:12 *479:12 0
20 *324:12 *479:49 0.000502205
21 *325:16 *3119:A0 0.000661886
22 *325:16 *479:8 0
23 *325:16 *479:12 0.000478206
24 *337:39 *3626:SEL 0
25 *398:10 *3119:A0 0.000289003
26 *476:25 *479:49 0
27 *478:12 *479:49 0
*RES
1 *3283:Q *479:4 20 
2 *479:4 *479:8 25.2942 
3 *479:8 *479:12 2.6471 
4 *479:12 *3119:A0 46.8495 
5 *479:12 *3118:A1 40 
6 *479:8 *3626:SEL 41.4343 
7 *479:4 *479:49 43.8651 
8 *479:49 *3625:SEL 20 
*END

*D_NET *480 0.0138342
*CONN
*I *3119:A1 I *D sg13g2_mux2_1
*I *3624:SEL I *D SwitchMatrixMultiplexer
*I *3120:A0 I *D sg13g2_mux2_1
*I *3622:SEL I *D SwitchMatrixMultiplexer_inv
*I *3284:Q O *D sg13g2_dfrbpq_1
*CAP
1 *3119:A1 0.000129164
2 *3624:SEL 1.43561e-05
3 *3120:A0 0.000350019
4 *3622:SEL 8.05301e-05
5 *3284:Q 0.000696681
6 *480:14 0.000639696
7 *480:12 0.00347309
8 *480:10 0.00407543
9 *3120:A0 *3120:S 0
10 *3120:A0 *3121:S 0
11 *3120:A0 *3285:RESET_B 0.000176484
12 *3622:SEL *3285:RESET_B 1.40176e-05
13 *3622:SEL *3502:A 0
14 *480:10 *637:76 7.86681e-05
15 *480:10 *656:10 0
16 *480:12 *3050:S 0.000398506
17 *480:12 *593:69 0.000266617
18 *480:12 *593:71 0.000107421
19 *480:12 *653:26 0
20 *480:12 *655:8 0.000400207
21 *480:12 *656:10 0
22 *480:14 *653:26 0
23 *480:14 *654:10 0
24 *3117:A1 *480:10 0
25 *3624:D *3624:SEL 1.40176e-05
26 *3628:bias *480:12 0.0012539
27 *327:16 *480:12 0
28 *327:20 *3622:SEL 0
29 *327:20 *480:12 0
30 *327:20 *480:14 0
31 *327:61 *3120:A0 0
32 *358:16 *3120:A0 0
33 *358:16 *3624:SEL 3.55832e-05
34 *394:31 *480:12 0
35 *413:12 *480:10 0.000911757
36 *413:12 *480:12 0.000718011
*RES
1 *3284:Q *480:10 47.004 
2 *480:10 *480:12 31.7755 
3 *480:12 *480:14 2.2969 
4 *480:14 *3622:SEL 40.7957 
5 *480:14 *3120:A0 42.8811 
6 *480:12 *3624:SEL 40.1674 
7 *480:10 *3119:A1 40.9682 
*END

*D_NET *481 0.00674182
*CONN
*I *3029:A1 I *D sg13g2_mux2_1
*I *3030:A0 I *D sg13g2_mux2_1
*I *3628:f_clk0_divider[4] I *D multimode_dll
*I *3194:Q O *D sg13g2_dfrbpq_1
*CAP
1 *3029:A1 0.000163558
2 *3030:A0 0
3 *3628:f_clk0_divider[4] 0.000209598
4 *3194:Q 0.00109008
5 *481:33 0.00205315
6 *481:27 0.00309719
7 *3029:A1 *3029:S 0
8 *481:27 *3193:RESET_B 0
9 *481:27 *598:116 0
10 *481:33 *598:116 0
11 *481:33 *599:61 0
12 *481:33 *638:99 0
13 *3025:A1 *481:27 0
14 *3025:A1 *481:33 0
15 *3026:A0 *481:27 0
16 *3029:A0 *481:27 0
17 *3193:D *481:27 0
18 *3194:D *3029:A1 0
19 *3628:f_clk0_divider[0] *3628:f_clk0_divider[4] 0
20 *3628:f_clk0_divider[0] *481:27 0
21 *147:8 *481:33 0.000128247
22 *332:40 *481:27 0
23 *426:55 *481:33 0
24 *437:21 *481:27 0
*RES
1 *3194:Q *3628:f_clk0_divider[4] 22.3767 
2 *3194:Q *481:27 49.5687 
3 *481:27 *481:33 38.1589 
4 *481:33 *3030:A0 20 
5 *481:27 *3029:A1 41.6171 
*END

*D_NET *482 0.0145066
*CONN
*I *3627:clk I *D delay_line
*I *3463:X O *D sg13g2_buf_16
*CAP
1 *3627:clk 9.95163e-05
2 *3463:X 7.58792e-05
3 *482:10 0.00678901
4 *482:8 0.00676537
5 *3627:clk *605:52 0
6 *482:10 *605:38 0
7 *482:10 *605:69 0
8 *482:10 *607:41 0
9 *482:10 *607:60 0
10 *482:10 *645:16 0
11 *3627:trim[0] *482:10 0
12 *352:74 *482:10 0.00077681
13 *444:39 *482:10 0
*RES
1 *3463:X *482:8 40.7519 
2 *482:8 *482:10 83.1622 
3 *482:10 *3627:clk 21.3647 
*END

*D_NET *483 0.00380201
*CONN
*I *3465:A I *D sg13g2_buf_16
*I *3464:X O *D sg13g2_buf_16
*CAP
1 *3465:A 0
2 *3464:X 0.000799895
3 *483:10 0.000799895
4 *483:10 *3146:A1 0
5 *483:10 *3178:RESET_B 8.00842e-05
6 *265:8 *483:10 0.000272718
7 *297:10 *483:10 0.000923754
8 *351:71 *483:10 0.00092566
*RES
1 *3464:X *483:10 49.5996 
2 *483:10 *3465:A 40 
*END

*D_NET *484 0.00467338
*CONN
*I *3466:A I *D sg13g2_buf_16
*I *3465:X O *D sg13g2_buf_16
*CAP
1 *3466:A 0
2 *3465:X 0.000550061
3 *484:10 0.000550061
4 *484:10 *485:8 0.000760317
5 *484:10 *562:98 0.000820849
6 *484:10 *629:28 0
7 *484:10 *701:20 0.000272718
8 *243:12 *484:10 0.00171937
*RES
1 *3465:X *484:10 49.8468 
2 *484:10 *3466:A 40 
*END

*D_NET *485 0.00405053
*CONN
*I *3467:A I *D sg13g2_buf_16
*I *3466:X O *D sg13g2_buf_16
*CAP
1 *3467:A 0.000240575
2 *3466:X 0.000445598
3 *485:8 0.000686173
4 *485:8 *562:106 0.000976911
5 *485:8 *629:28 0
6 *243:12 *485:8 0
7 *322:18 *485:8 0.000711016
8 *417:73 *485:8 0.000229936
9 *484:10 *485:8 0.000760317
*RES
1 *3466:X *485:8 47.519 
2 *485:8 *3467:A 42.0497 
*END

*D_NET *486 0.00601227
*CONN
*I *3468:A I *D sg13g2_buf_16
*I *3467:X O *D sg13g2_buf_16
*CAP
1 *3468:A 0
2 *3467:X 0.000120306
3 *486:16 0.00165849
4 *486:8 0.0017788
5 *486:16 *562:106 0.00156203
6 *486:16 *639:14 0
7 *486:16 *708:33 0
8 *3152:B *486:16 0
9 *3452:A *486:16 0.000401895
10 *3628:ext_trim[18] *486:16 7.47893e-05
11 *308:33 *486:8 0.000207922
12 *322:12 *486:16 0
13 *322:18 *486:8 0.000208035
14 *419:10 *486:16 0
*RES
1 *3467:X *486:8 41.4008 
2 *486:8 *486:16 35.9753 
3 *486:16 *3468:A 20 
*END

*D_NET *487 0.0284923
*CONN
*I *3435:A I *D sg13g2_buf_8
*I *3434:A I *D sg13g2_buf_8
*I *3468:X O *D sg13g2_buf_16
*CAP
1 *3435:A 0.000817227
2 *3434:A 0.000115172
3 *3468:X 0
4 *487:29 0.00245842
5 *487:16 0.00204654
6 *487:10 0.00348634
7 *487:6 0.00319616
8 *3434:A *564:14 0
9 *487:10 *522:30 0
10 *487:10 *583:36 0.00181329
11 *487:10 *625:24 0
12 *487:10 *702:12 0.0024344
13 *487:16 *3485:A 0.000788512
14 *487:16 *508:10 0
15 *487:16 *522:63 0.000181291
16 *487:16 *623:46 0.000126047
17 *487:16 *698:8 0.000432821
18 *487:16 *700:14 0
19 *487:29 *583:20 0.00086835
20 *487:29 *625:20 0.000822015
21 *487:29 *625:24 0
22 *3456:A *3435:A 0
23 *52:24 *487:16 0
24 *92:18 *487:16 0
25 *148:12 *487:10 0.000645607
26 *149:22 *487:10 0.00118619
27 *150:22 *487:10 0.00103178
28 *246:80 *487:10 0
29 *246:90 *487:10 0.000448185
30 *246:90 *487:29 0.00129877
31 *248:16 *3434:A 0.000176598
32 *296:36 *487:16 0
33 *299:10 *487:29 0
34 *320:33 *487:29 0
35 *323:43 *487:10 0
36 *345:18 *487:16 0
37 *418:10 *487:10 0.00055613
38 *420:44 *487:29 0.000876554
39 *435:10 *3435:A 0.000562496
40 *436:10 *487:29 0.00183979
41 *436:20 *487:29 0.000283585
*RES
1 *3468:X *487:6 40 
2 *487:6 *487:10 44.5758 
3 *487:10 *487:16 37.2937 
4 *487:16 *3434:A 41.1845 
5 *487:6 *487:29 42.351 
6 *487:29 *3435:A 28.3224 
*END

*D_NET *488 0.000463539
*CONN
*I *3628:osc I *D multimode_dll
*I *3469:X O *D sg13g2_buf_16
*CAP
1 *3628:osc 0.00023177
2 *3469:X 0.00023177
3 *3628:osc *3628:resetb 0
4 *3628:enable *3628:osc 0
*RES
1 *3469:X *3628:osc 22.5261 
*END

*D_NET *489 0.00429584
*CONN
*I *3471:A I *D sg13g2_buf_16
*I *3470:X O *D sg13g2_buf_16
*CAP
1 *3471:A 3.67071e-05
2 *3470:X 0.000113675
3 *489:23 0.00203425
4 *489:6 0.00211121
5 *489:23 *491:15 0
6 *489:23 *492:19 0
7 *489:23 *516:8 0
8 *489:23 *580:28 0
9 *489:23 *616:112 0
10 *489:23 *616:125 0
11 *90:14 *489:23 0
12 *239:30 *3471:A 0
13 *289:6 *489:23 0
14 *289:15 *489:6 0
15 *289:15 *489:23 0
16 *317:16 *489:23 0
17 *351:20 *489:6 0
18 *351:20 *489:23 0
19 *427:53 *3471:A 0
20 *427:53 *489:23 0
*RES
1 *3470:X *489:6 20.9682 
2 *489:6 *489:23 35.8185 
3 *489:23 *3471:A 40.3193 
*END

*D_NET *490 0.00183287
*CONN
*I *3472:A I *D sg13g2_buf_16
*I *3471:X O *D sg13g2_buf_16
*CAP
1 *3472:A 0
2 *3471:X 0.000171677
3 *490:15 0.000744756
4 *490:6 0.000916433
5 *490:6 *491:15 0
6 *490:15 *3235:RESET_B 0
7 *490:15 *491:6 0
8 *490:15 *491:15 0
9 *490:15 *588:46 0
10 *490:15 *590:16 0
11 *317:16 *490:6 0
12 *317:16 *490:15 0
13 *427:18 *490:15 0
*RES
1 *3471:X *490:6 21.4008 
2 *490:6 *490:15 26.0461 
3 *490:15 *3472:A 40 
*END

*D_NET *491 0.00197047
*CONN
*I *3473:A I *D sg13g2_buf_16
*I *3472:X O *D sg13g2_buf_16
*CAP
1 *3473:A 0
2 *3472:X 0.000136089
3 *491:15 0.000849144
4 *491:6 0.000985233
5 *491:6 *3235:RESET_B 0
6 *491:15 *3235:RESET_B 0
7 *491:15 *616:105 0
8 *172:18 *491:15 0
9 *239:24 *491:15 0
10 *317:16 *491:15 0
11 *427:53 *491:15 0
12 *489:23 *491:15 0
13 *490:6 *491:15 0
14 *490:15 *491:6 0
15 *490:15 *491:15 0
*RES
1 *3472:X *491:6 20.9682 
2 *491:6 *491:15 27.004 
3 *491:15 *3473:A 40 
*END

*D_NET *492 0.00541917
*CONN
*I *3475:A I *D sg13g2_buf_16
*I *3473:X O *D sg13g2_buf_16
*CAP
1 *3475:A 0.000119833
2 *3473:X 9.6397e-05
3 *492:31 0.00111545
4 *492:19 0.00249336
5 *492:6 0.00159414
6 *492:6 *618:82 0
7 *492:19 *580:28 0
8 *492:19 *616:58 0
9 *492:19 *616:105 0
10 *492:19 *618:63 0
11 *492:19 *618:82 0
12 *492:31 *496:27 0
13 *492:31 *590:16 0
14 *492:31 *610:82 0
15 *3155:B *492:6 0
16 *3155:B *492:19 0
17 *3628:ext_trim[8] *3475:A 0
18 *3628:ext_trim[8] *492:31 0
19 *239:30 *492:31 0
20 *422:56 *3475:A 0
21 *422:56 *492:31 0
22 *424:31 *3475:A 0
23 *427:6 *492:31 0
24 *427:18 *492:19 0
25 *427:18 *492:31 0
26 *427:53 *492:31 0
27 *441:8 *492:31 0
28 *489:23 *492:19 0
*RES
1 *3473:X *492:6 20.8601 
2 *492:6 *492:19 32.2313 
3 *492:19 *492:31 29.9678 
4 *492:31 *3475:A 20.9399 
*END

*D_NET *493 0.00646397
*CONN
*I *3484:A I *D sg13g2_buf_16
*I *3474:X O *D sg13g2_buf_16
*CAP
1 *3484:A 0
2 *3474:X 0.000186239
3 *493:24 0.000390735
4 *493:16 0.00167144
5 *493:8 0.00146695
6 *493:8 *689:27 7.34762e-05
7 *493:16 *583:60 0.000903203
8 *493:16 *623:140 0
9 *493:24 *625:58 0
10 *3433:A *493:16 0
11 *51:54 *493:24 0.000176106
12 *67:12 *493:16 0.000531249
13 *73:8 *493:8 0
14 *248:16 *493:16 0.00106457
15 *248:26 *493:16 0
16 *277:10 *493:24 0
17 *277:20 *493:24 0
*RES
1 *3474:X *493:8 41.339 
2 *493:8 *493:16 33.3135 
3 *493:16 *493:24 43.2651 
4 *493:24 *3484:A 20 
*END

*D_NET *494 0.00189337
*CONN
*I *3476:A I *D sg13g2_buf_16
*I *3475:X O *D sg13g2_buf_16
*CAP
1 *3476:A 0
2 *3475:X 9.93336e-05
3 *494:15 0.000847349
4 *494:6 0.000946683
5 *494:6 *595:83 0
6 *494:6 *615:104 0
7 *494:15 *3235:RESET_B 0
8 *494:15 *516:22 0
9 *494:15 *595:83 0
10 *494:15 *615:104 0
11 *172:10 *494:15 0
12 *317:16 *494:15 0
*RES
1 *3475:X *494:6 20.7725 
2 *494:6 *494:15 26.9216 
3 *494:15 *3476:A 40 
*END

*D_NET *495 0.00198488
*CONN
*I *3477:A I *D sg13g2_buf_16
*I *3476:X O *D sg13g2_buf_16
*CAP
1 *3477:A 8.19895e-05
2 *3476:X 0.000127565
3 *495:19 0.000864873
4 *495:6 0.000910448
5 *495:6 *618:55 0
6 *495:19 *618:55 0
7 *495:19 *618:82 0
8 uio_oe[4] *495:19 0
9 *3155:B *495:19 0
10 *3341:D *3477:A 0
11 *66:22 *495:6 0
12 *66:22 *495:19 0
13 *345:62 *3477:A 0
14 *345:62 *495:19 0
*RES
1 *3476:X *495:6 20.9682 
2 *495:6 *495:19 7.13895 
3 *495:19 *3477:A 20.8601 
*END

*D_NET *496 0.00840836
*CONN
*I *3377:A I *D sg13g2_buf_16
*I *3477:X O *D sg13g2_buf_16
*CAP
1 *3377:A 0.000202945
2 *3477:X 0.000150115
3 *496:27 0.000998645
4 *496:23 0.00327448
5 *496:17 0.00299912
6 *496:6 0.000670453
7 *496:6 *543:12 0
8 *496:17 *543:12 0
9 *496:17 *616:72 0
10 *496:23 *573:22 0
11 uio_out[5] *496:23 0
12 *3084:A1 *496:23 0
13 *3628:ext_trim[21] *496:27 0
14 *3628:ext_trim[22] *496:27 0
15 *3628:ext_trim[8] *496:23 0
16 *51:12 *496:17 0
17 *51:18 *496:23 0
18 *66:22 *496:23 0
19 *157:10 *496:23 0
20 *300:52 *496:6 0
21 *300:52 *496:17 0
22 *344:41 *496:23 0
23 *344:47 *496:23 0
24 *345:62 *496:17 0
25 *366:8 *496:23 0
26 *385:72 *3377:A 0.000112611
27 *422:56 *3377:A 0
28 *422:56 *496:27 0
29 *424:31 *3377:A 0
30 *427:32 *496:23 0
31 *439:22 *3377:A 0
32 *439:22 *496:27 0
33 *441:12 *496:23 0
34 *492:31 *496:27 0
*RES
1 *3477:X *496:6 21.1922 
2 *496:6 *496:17 44.5243 
3 *496:17 *496:23 39.925 
4 *496:23 *496:27 27.2409 
5 *496:27 *3377:A 22.0291 
*END

*D_NET *497 0.00294633
*CONN
*I *3479:A I *D sg13g2_buf_16
*I *3478:X O *D sg13g2_buf_16
*CAP
1 *3479:A 7.91412e-05
2 *3478:X 0.000145788
3 *497:17 0.00132738
4 *497:6 0.00139402
5 *497:17 *702:12 0
6 *3228:D *497:17 0
7 *418:37 *497:6 0
8 *418:37 *497:17 0
*RES
1 *3478:X *497:6 21.2309 
2 *497:6 *497:17 11.1497 
3 *497:17 *3479:A 20.9682 
*END

*D_NET *498 0.0071827
*CONN
*I *3480:A I *D sg13g2_buf_16
*I *3479:X O *D sg13g2_buf_16
*CAP
1 *3480:A 0.000108588
2 *3479:X 5.68535e-05
3 *498:17 0.0035345
4 *498:8 0.00348276
5 *498:17 *3366:RESET_B 0
6 *498:17 *530:14 0
7 *498:17 *624:26 0
8 *3628:ext_trim[4] *498:17 0
9 *328:92 *498:17 0
10 *414:24 *498:17 0
11 *434:27 *3480:A 0
12 *435:10 *3480:A 0
13 *435:10 *498:17 0
14 *436:28 *498:17 0
*RES
1 *3479:X *498:8 40.5356 
2 *498:8 *498:17 45.7772 
3 *498:17 *3480:A 21.2103 
*END

*D_NET *499 0.00635983
*CONN
*I *3481:A I *D sg13g2_buf_16
*I *3480:X O *D sg13g2_buf_16
*CAP
1 *3481:A 0.000116408
2 *3480:X 6.0297e-05
3 *499:17 0.00311962
4 *499:8 0.00306351
5 *499:17 *500:15 0
6 *499:17 *598:33 0
7 *499:17 *599:36 0
8 *166:10 *499:8 0
9 *290:41 *499:17 0
10 *290:43 *499:17 0
11 *293:41 *499:8 0
12 *320:14 *499:17 0
13 *320:53 *499:17 0
14 *323:6 *499:17 0
15 *385:34 *499:17 0
16 *404:37 *499:17 0
*RES
1 *3480:X *499:8 40.5356 
2 *499:8 *499:17 44.4625 
3 *499:17 *3481:A 20.9682 
*END

*D_NET *500 0.00643957
*CONN
*I *3482:A I *D sg13g2_buf_16
*I *3481:X O *D sg13g2_buf_16
*CAP
1 *3482:A 7.33932e-05
2 *3481:X 0.000158522
3 *500:21 0.000542241
4 *500:15 0.00298787
5 *500:6 0.00267754
6 *500:15 *598:97 0
7 *500:15 *641:130 0
8 *500:21 *599:48 0
9 *3195:D *500:21 0
10 *290:35 *500:15 0
11 *290:41 *500:15 0
12 *320:8 *500:15 0
13 *320:53 *500:15 0
14 *320:68 *500:15 0
15 *367:12 *500:21 0
16 *385:22 *500:15 0
17 *499:17 *500:15 0
*RES
1 *3481:X *500:6 21.2927 
2 *500:6 *500:15 40.2447 
3 *500:15 *500:21 24.5423 
4 *500:21 *3482:A 20.927 
*END

*D_NET *501 0.00425073
*CONN
*I *3483:A I *D sg13g2_buf_16
*I *3482:X O *D sg13g2_buf_16
*CAP
1 *3483:A 8.68702e-05
2 *3482:X 0.00010427
3 *501:17 0.0020211
4 *501:8 0.0020385
5 *501:17 *502:13 0
6 *414:18 *501:17 0
*RES
1 *3482:X *501:8 40.9682 
2 *501:8 *501:17 42.0368 
3 *501:17 *3483:A 20.8601 
*END

*D_NET *502 0.00349924
*CONN
*I *3439:A I *D sg13g2_buf_16
*I *3483:X O *D sg13g2_buf_16
*CAP
1 *3439:A 6.88401e-05
2 *3483:X 5.02077e-05
3 *502:13 0.00169941
4 *502:8 0.00168078
5 *502:13 *3191:RESET_B 0
6 *502:13 *3193:RESET_B 0
7 *502:13 *640:32 0
8 *332:30 *3439:A 0
9 *332:48 *502:13 0
10 *413:49 *502:13 0
11 *501:17 *502:13 0
*RES
1 *3483:X *502:8 40.5356 
2 *502:8 *502:13 17.9014 
3 *502:13 *3439:A 40.7519 
*END

*D_NET *503 0.00482839
*CONN
*I *3485:A I *D sg13g2_buf_16
*I *3484:X O *D sg13g2_buf_16
*CAP
1 *3485:A 0.000512768
2 *3484:X 0.00120991
3 *503:8 0.00172268
4 *3485:A *3003:D 0.000594529
5 *503:8 *533:40 0
6 *503:8 *624:46 0
7 *503:8 *625:58 0
8 *277:20 *503:8 0
9 *301:34 *3485:A 0
10 *487:16 *3485:A 0.000788512
*RES
1 *3484:X *503:8 49.0022 
2 *503:8 *3485:A 45.7268 
*END

*D_NET *504 0.00293781
*CONN
*I *3486:A I *D sg13g2_buf_16
*I *3485:X O *D sg13g2_buf_16
*CAP
1 *3486:A 0.000388401
2 *3485:X 0.000911805
3 *504:10 0.00130021
4 *3486:A *544:24 0
5 *504:10 *508:6 0
6 *504:10 *528:22 0
7 *504:10 *632:60 0
8 *6:14 *3486:A 0
9 *351:69 *504:10 0.000337402
*RES
1 *3485:X *504:10 48.0237 
2 *504:10 *3486:A 43.3166 
*END

*D_NET *505 0.00318884
*CONN
*I *3487:A I *D sg13g2_buf_16
*I *3486:X O *D sg13g2_buf_16
*CAP
1 *3487:A 0.000601104
2 *3486:X 0.00034627
3 *505:8 0.000947373
4 *3487:A *3061:S 4.77425e-05
5 *3487:A *3369:D 0.000369213
6 *505:8 *544:24 0.000877143
7 *3061:A1 *3487:A 0
8 *6:14 *505:8 0
9 *68:50 *3487:A 0
10 *318:80 *505:8 0
11 *348:10 *3487:A 0
12 *416:70 *3487:A 0
*RES
1 *3486:X *505:8 44.0582 
2 *505:8 *3487:A 45.6444 
*END

*D_NET *506 0.00735298
*CONN
*I *3488:A I *D sg13g2_buf_16
*I *3487:X O *D sg13g2_buf_16
*CAP
1 *3488:A 0
2 *3487:X 0.000749715
3 *506:14 0.00194603
4 *506:8 0.00269574
5 *506:8 *2941:A0 3.24568e-05
6 *506:8 *2941:A1 0
7 *506:8 *2942:A0 0.000144887
8 *506:8 *555:40 0.000401894
9 *506:14 *3489:A 0.000769195
10 *506:14 *705:29 0
11 *3173:D *506:8 0
12 *3177:D *506:8 0.000272718
13 *6:14 *506:14 0
14 *75:22 *506:8 0
15 *244:38 *506:8 0
16 *259:30 *506:14 0.000340344
17 *262:16 *506:14 0
18 *288:8 *506:8 0
19 *288:17 *506:14 0
*RES
1 *3487:X *506:8 47.2409 
2 *506:8 *506:14 37.1701 
3 *506:14 *3488:A 20 
*END

*D_NET *507 0.00428319
*CONN
*I *3489:A I *D sg13g2_buf_16
*I *3488:X O *D sg13g2_buf_16
*CAP
1 *3489:A 0.000488317
2 *3488:X 0.00045218
3 *507:8 0.000940497
4 *507:8 *3183:RESET_B 0.000175693
5 *507:8 *632:60 0
6 *8:9 *507:8 0
7 *262:16 *3489:A 0.0014573
8 *288:17 *3489:A 0
9 *506:14 *3489:A 0.000769195
*RES
1 *3488:X *507:8 43.7801 
2 *507:8 *3489:A 47.519 
*END

*D_NET *508 0.0205533
*CONN
*I *3147:B I *D sg13g2_xnor2_1
*I *3150:B I *D sg13g2_xnor2_1
*I *3151:B I *D sg13g2_xnor2_1
*I *3489:X O *D sg13g2_buf_16
*CAP
1 *3147:B 5.35509e-05
2 *3150:B 0
3 *3151:B 0.00146959
4 *3489:X 0.00235043
5 *508:30 0.00256169
6 *508:20 0.00209868
7 *508:10 0.00176243
8 *508:6 0.00305273
9 *3147:B *583:60 0
10 *3151:B *3320:D 0
11 *3151:B *3364:D 1.54556e-05
12 *3151:B *580:10 0.000111037
13 *3151:B *610:48 0
14 *3151:B *610:50 0.000144956
15 *3151:B *618:98 0.000498743
16 *508:6 *3003:D 0
17 *508:6 *3357:CLK 0
18 *508:6 *509:8 0
19 *508:6 *632:60 0
20 *508:6 *639:32 0.000304569
21 *508:6 *657:10 0.000466708
22 *508:10 *623:46 0
23 *508:10 *692:8 0.000280479
24 *508:20 *533:40 0.000791635
25 *508:20 *623:89 0.000176394
26 *508:20 *623:100 0.000290565
27 *508:20 *692:8 0.00034097
28 *508:30 *2949:B 0
29 *508:30 *3363:RESET_B 0.000112683
30 *508:30 *3364:D 0
31 *508:30 *520:20 0
32 *508:30 *554:22 0
33 *508:30 *689:27 0.000493204
34 *2938:S *508:30 1.54008e-05
35 *3147:A *3147:B 4.77083e-05
36 *3166:B *3151:B 0
37 *3311:D *508:6 0
38 *3355:CLK *508:6 0.000112569
39 *3361:CLK *508:6 0
40 *3391:A *508:6 0
41 *12:11 *508:30 0
42 *31:20 *508:6 0
43 *52:18 *508:6 0
44 *74:12 *3151:B 0
45 *74:12 *508:30 6.18224e-06
46 *92:10 *3151:B 0.000435225
47 *92:18 *508:20 0
48 *277:20 *508:30 8.02269e-05
49 *291:134 *508:6 0
50 *292:10 *508:20 0
51 *297:18 *508:10 0.000630982
52 *297:18 *508:20 7.30101e-05
53 *297:24 *508:20 0.000728022
54 *297:26 *508:20 1.54008e-05
55 *297:46 *3151:B 0
56 *298:28 *508:30 0
57 *298:32 *508:30 0
58 *298:40 *3151:B 0.000888026
59 *298:50 *3151:B 0.000144054
60 *351:8 *508:10 0
61 *351:69 *508:6 0
62 *487:16 *508:10 0
63 *504:10 *508:6 0
*RES
1 *3489:X *508:6 40.3699 
2 *508:6 *508:10 26.7774 
3 *508:10 *508:20 31.5978 
4 *508:20 *508:30 49.7953 
5 *508:30 *3151:B 34.6981 
6 *508:20 *3150:B 20 
7 *508:10 *3147:B 40.5356 
*END

*D_NET *509 0.00695247
*CONN
*I *3491:A I *D sg13g2_buf_16
*I *3490:X O *D sg13g2_buf_16
*CAP
1 *3491:A 0
2 *3490:X 0.000309504
3 *509:14 0.00124744
4 *509:8 0.00155694
5 *509:14 *522:34 0
6 *509:14 *701:28 0.00123749
7 *298:22 *509:14 0
8 *311:14 *509:14 0.000530036
9 *351:69 *509:8 0.000467404
10 *436:28 *509:14 0.00160365
11 *508:6 *509:8 0
*RES
1 *3490:X *509:8 43.1312 
2 *509:8 *509:14 34.6054 
3 *509:14 *3491:A 20 
*END

*D_NET *510 0.00568152
*CONN
*I *3464:A I *D sg13g2_buf_16
*I *3491:X O *D sg13g2_buf_16
*CAP
1 *3464:A 0.000884218
2 *3491:X 8.21469e-05
3 *510:16 0.00155757
4 *510:10 0.000755501
5 *510:10 *623:36 0.000176638
6 *510:10 *627:101 4.77425e-05
7 *510:16 *704:26 0.000916484
8 *6:48 *3464:A 0
9 *103:10 *3464:A 0.00108482
10 *295:10 *3464:A 0
11 *295:16 *3464:A 0
12 *297:10 *510:10 0.000176399
*RES
1 *3491:X *510:10 41.1639 
2 *510:10 *510:16 46.1594 
3 *510:16 *3464:A 48.755 
*END

*D_NET *511 0.0378162
*CONN
*I *2954:A I *D sg13g2_and2_1
*I *3348:Q O *D sg13g2_dfrbpq_1
*CAP
1 *2954:A 0.00017118
2 *3348:Q 0.000554141
3 *511:36 0.001183
4 *511:30 0.00246003
5 *511:22 0.00152588
6 *511:16 0.00286417
7 *511:10 0.00334064
8 *2954:A *2954:B 8.03692e-05
9 *2954:A *2955:A 0.000273997
10 *2954:A *558:24 0
11 *511:10 *3219:RESET_B 0
12 *511:10 *513:10 0.000289417
13 *511:10 *633:30 0
14 *511:16 *512:10 0
15 *511:16 *513:10 0.00523865
16 *511:16 *542:12 2.22695e-05
17 *511:16 *620:8 0.000342449
18 *511:16 *620:21 0.0013863
19 *511:22 *577:10 0
20 *511:22 *613:16 0.000112426
21 *511:30 *512:22 0
22 *511:30 *513:10 0
23 *511:30 *556:18 0.0001251
24 *511:36 *512:30 0
25 *511:36 *557:12 0.00124741
26 uo_out[1] *511:30 0
27 uo_out[6] *511:36 0.000331737
28 *3158:A *511:30 0.000760815
29 *3304:D *2954:A 0.000144055
30 *3323:CLK *511:30 0.00154159
31 *3336:CLK *511:30 0.000234811
32 *27:14 *511:36 0.00153931
33 *29:8 *511:30 0
34 *34:12 *511:30 0.000658906
35 *56:12 *511:10 0
36 *59:14 *511:30 0
37 *281:20 *511:30 0.00135093
38 *299:71 *511:10 0
39 *300:119 *511:16 0
40 *300:119 *511:30 0.000501044
41 *327:22 *511:10 0.000767952
42 *327:28 *511:10 0.000181279
43 *327:28 *511:16 0.00156883
44 *327:32 *511:16 0.00279763
45 *343:52 *511:30 0.000425637
46 *354:12 *511:16 0.00172742
47 *354:18 *511:16 0.00108689
48 *370:18 *511:16 0.000979994
*RES
1 *3348:Q *511:10 47.3439 
2 *511:10 *511:16 46.2573 
3 *511:16 *511:22 40.7519 
4 *511:22 *511:30 40.0541 
5 *511:30 *511:36 31.8553 
6 *511:36 *2954:A 42.0497 
*END

*D_NET *512 0.0293387
*CONN
*I *2955:A I *D sg13g2_and2_1
*I *3349:Q O *D sg13g2_dfrbpq_1
*CAP
1 *2955:A 0.000241346
2 *3349:Q 0.000287752
3 *512:36 0.000578067
4 *512:30 0.0010803
5 *512:22 0.00143343
6 *512:10 0.00734472
7 *512:8 0.00694262
8 *2955:A *2954:B 0
9 *512:8 *3123:S 0
10 *512:8 *3502:A 0
11 *512:10 *536:18 0
12 *512:10 *542:12 0
13 *512:10 *575:18 0
14 *512:10 *582:55 0
15 *512:10 *582:75 0
16 *512:10 *583:154 0
17 *512:10 *585:38 0
18 *512:10 *589:27 0
19 *512:10 *664:8 0.000661057
20 *512:10 *682:10 0
21 *512:10 *685:10 0
22 *512:22 *556:18 0.000125347
23 *512:22 *585:38 0
24 *512:22 *611:37 0.000179386
25 *512:22 *611:41 0.00023547
26 *512:30 *557:12 0.000793558
27 *512:30 *584:14 0.000436189
28 *512:36 *573:14 0
29 uo_out[0] *512:10 0
30 uo_out[1] *512:10 0.00252364
31 uo_out[1] *512:22 0.000605607
32 uo_out[4] *512:30 0
33 *2954:A *2955:A 0.000273997
34 *2989:A2 *512:10 0
35 *3125:A0 *512:10 0
36 *3137:A1 *512:10 0.00050146
37 *3142:A0 *512:22 0.000111568
38 *3144:A1 *512:10 0
39 *3285:D *512:8 0
40 *3570:A *512:10 0.000128541
41 *7:25 *512:30 0.000176396
42 *11:9 *512:36 0.000505148
43 *25:26 *2955:A 0.000402738
44 *26:18 *512:30 0.000663989
45 *27:14 *512:30 0
46 *29:8 *512:22 0.000234224
47 *39:8 *512:22 0
48 *46:8 *512:10 0.000926078
49 *59:14 *512:30 0
50 *215:12 *512:30 0
51 *281:20 *512:10 0
52 *299:77 *512:10 0
53 *327:22 *512:10 0
54 *327:28 *512:10 0
55 *327:32 *512:10 0
56 *329:50 *512:8 0
57 *354:12 *512:10 0
58 *361:10 *512:10 0
59 *361:12 *512:10 0
60 *362:10 *512:10 0
61 *362:18 *512:10 0
62 *371:25 *512:10 0
63 *375:8 *512:10 0.00194609
64 *511:16 *512:10 0
65 *511:30 *512:22 0
66 *511:36 *512:30 0
*RES
1 *3349:Q *512:8 42.6986 
2 *512:8 *512:10 69.8134 
3 *512:10 *512:22 47.4572 
4 *512:22 *512:30 48.5181 
5 *512:30 *512:36 43.3475 
6 *512:36 *2955:A 42.6986 
*END

*D_NET *513 0.0276835
*CONN
*I *2956:A I *D sg13g2_and2_1
*I *3350:Q O *D sg13g2_dfrbpq_1
*CAP
1 *2956:A 0
2 *3350:Q 7.38243e-05
3 *513:24 0.000351427
4 *513:14 0.0016362
5 *513:10 0.00722095
6 *513:8 0.00601
7 *513:8 *3348:RESET_B 0.000111828
8 *513:10 *583:127 0
9 *513:10 *583:146 0
10 *513:10 *611:31 0
11 *513:10 *620:8 0.000342449
12 *513:10 *620:21 0.0014084
13 *513:24 *556:8 1.54556e-05
14 *513:24 *558:24 0
15 uio_out[0] *513:24 0
16 uio_out[1] *513:24 0
17 uo_out[1] *513:10 0
18 uo_out[2] *513:10 0
19 *27:14 *513:14 0.00231742
20 *59:14 *513:10 0.00266749
21 *299:71 *513:10 0
22 *300:119 *513:10 0
23 *354:51 *513:10 0
24 *380:38 *513:10 0
25 *511:10 *513:10 0.000289417
26 *511:16 *513:10 0.00523865
27 *511:30 *513:10 0
*RES
1 *3350:Q *513:8 40.7519 
2 *513:8 *513:10 67.0942 
3 *513:10 *513:14 35.4603 
4 *513:14 *513:24 42.5415 
5 *513:24 *2956:A 20 
*END

*D_NET *514 0.0276243
*CONN
*I *2957:A I *D sg13g2_and2_1
*I *3351:Q O *D sg13g2_dfrbpq_1
*CAP
1 *2957:A 0
2 *3351:Q 0.000424267
3 *514:42 0.00047771
4 *514:30 0.00285168
5 *514:16 0.00252882
6 *514:10 0.00290811
7 *514:8 0.00317752
8 *514:8 *622:67 0.000240377
9 *514:16 *568:16 8.00842e-05
10 *514:16 *578:10 0.000144542
11 *514:30 *3139:S 0.000467272
12 *514:30 *558:24 0.000498989
13 *514:30 *568:16 0
14 *514:30 *570:14 0
15 *514:30 *571:18 0.000466603
16 *514:30 *583:121 0.00113561
17 *514:30 *585:8 0.000677151
18 *514:30 *585:14 0.000129089
19 *514:30 *612:39 0.000240876
20 *514:42 *2930:A 1.51749e-05
21 *514:42 *515:22 1.54008e-05
22 *514:42 *608:64 4.78853e-05
23 uio_out[1] *514:42 0
24 *3141:A0 *514:30 8.02269e-05
25 *3245:CLK *514:8 0
26 *3305:D *514:42 0.000144998
27 *3306:D *514:30 8.03692e-05
28 *7:25 *514:30 0.00191724
29 *7:37 *514:10 0
30 *13:15 *514:42 0.0003356
31 *25:26 *514:42 0.000241195
32 *26:18 *514:42 0
33 *35:12 *514:10 0.00059741
34 *238:10 *514:42 4.75425e-05
35 *364:22 *514:30 0.000176105
36 *380:30 *514:30 0.000273179
37 *423:12 *514:10 0.00242605
38 *423:30 *514:10 0.00181636
39 *423:36 *514:10 0.00107844
40 *436:36 *514:30 0.000550126
41 *438:12 *514:10 0.00125249
42 *439:10 *514:10 0
43 *439:18 *514:10 0
44 *439:22 *514:16 7.98567e-05
*RES
1 *3351:Q *514:8 44.2127 
2 *514:8 *514:10 34.9582 
3 *514:10 *514:16 41.6171 
4 *514:16 *514:30 47.0993 
5 *514:30 *514:42 44.9543 
6 *514:42 *2957:A 20 
*END

*D_NET *515 0.0101863
*CONN
*I *2958:A I *D sg13g2_and2_1
*I *3340:Q O *D sg13g2_dfrbpq_1
*CAP
1 *2958:A 0
2 *3340:Q 6.75413e-05
3 *515:22 0.000598194
4 *515:14 0.0025566
5 *515:8 0.00202595
6 *515:8 *612:84 0.00011101
7 *515:14 *557:12 0.00108498
8 *515:14 *571:8 0.000230625
9 *515:14 *586:106 0
10 *515:14 *608:28 0
11 *515:14 *608:30 0
12 *515:14 *618:10 0.00117636
13 *515:22 *609:56 7.90678e-05
14 uio_out[0] *515:14 0
15 uio_out[3] *515:22 0
16 uo_out[7] *515:14 0
17 *3166:B *515:22 0
18 *3233:D *515:8 0.00011101
19 *3305:D *515:22 0
20 *25:26 *515:22 0.000468165
21 *26:18 *515:22 0
22 *27:14 *515:14 0.0010848
23 *77:12 *515:14 0.000334861
24 *227:8 *515:14 0
25 *379:20 *515:22 0.000241725
26 *514:42 *515:22 1.54008e-05
*RES
1 *3340:Q *515:8 40.7519 
2 *515:8 *515:14 39.4567 
3 *515:14 *515:22 45.5749 
4 *515:22 *2958:A 20 
*END

*D_NET *516 0.00801112
*CONN
*I *2959:A I *D sg13g2_and2_1
*I *3341:Q O *D sg13g2_dfrbpq_1
*CAP
1 *2959:A 0.000757738
2 *3341:Q 0.000139294
3 *516:22 0.00146498
4 *516:14 0.00127442
5 *516:8 0.000706469
6 *2959:A *559:16 0.000908199
7 *2959:A *590:8 0.00011174
8 *2959:A *595:83 0
9 *2959:A *606:48 0
10 *2959:A *609:40 6.46834e-05
11 *2959:A *609:56 8.02267e-05
12 *516:8 *616:112 0
13 *516:22 *559:16 0.00117895
14 *516:22 *588:46 0
15 *516:22 *676:12 0.000858251
16 *3166:B *2959:A 8.00842e-05
17 *12:13 *516:14 0
18 *26:18 *2959:A 0.000306223
19 *26:26 *2959:A 0
20 *51:18 *516:14 0
21 *66:22 *516:22 7.98567e-05
22 *172:10 *516:22 0
23 *489:23 *516:8 0
24 *494:15 *516:22 0
*RES
1 *3341:Q *516:8 41.1845 
2 *516:8 *516:14 45.5105 
3 *516:14 *516:22 48.549 
4 *516:22 *2959:A 47.9619 
*END

*D_NET *517 0.00705795
*CONN
*I *2960:A I *D sg13g2_and2_1
*I *3342:Q O *D sg13g2_dfrbpq_1
*CAP
1 *2960:A 6.40547e-05
2 *3342:Q 0.00101016
3 *517:24 0.000577385
4 *517:16 0.00112644
5 *517:10 0.00162327
6 *2960:A *606:48 0.000112683
7 *2960:A *609:72 8.03417e-05
8 *517:10 *518:18 0
9 *517:10 *561:16 0.000124547
10 *517:10 *579:20 0.00012785
11 *517:16 *580:18 0.000826503
12 *517:16 *679:36 0
13 *517:24 *580:24 0.000307667
14 *517:24 *679:46 0
15 uio_oe[3] *517:10 0
16 uio_oe[4] *517:10 0
17 uio_out[7] *517:24 0.00022762
18 *7:9 *517:16 0
19 *10:9 *517:24 0
20 *13:9 *517:24 0
21 *26:26 *517:16 0.00014514
22 *27:14 *517:16 0.000469478
23 *65:34 *517:10 0
24 *345:42 *517:10 0.000234811
25 *351:24 *517:10 0
*RES
1 *3342:Q *517:10 48.0237 
2 *517:10 *517:16 46.8083 
3 *517:16 *517:24 44.8719 
4 *517:24 *2960:A 40.7519 
*END

*D_NET *518 0.00578498
*CONN
*I *2961:A I *D sg13g2_and2_1
*I *3343:Q O *D sg13g2_dfrbpq_1
*CAP
1 *2961:A 0
2 *3343:Q 0.000474229
3 *518:18 0.00142451
4 *518:12 0.00189874
5 *518:12 *3071:S 1.54008e-05
6 *518:12 *3072:S 1.98648e-05
7 *518:12 *610:62 0.000208681
8 *518:18 *3320:RESET_B 0
9 *518:18 *579:20 0
10 *518:18 *609:20 0.0009054
11 *518:18 *609:30 8.02267e-05
12 *518:18 *616:72 0.000662517
13 *3072:A0 *518:12 0
14 *3237:D *518:12 9.54046e-05
15 *345:42 *518:18 0
16 *351:24 *518:18 0
17 *517:10 *518:18 0
*RES
1 *3343:Q *518:12 44.7895 
2 *518:12 *518:18 32.6278 
3 *518:18 *2961:A 20 
*END

*D_NET *519 0.0128893
*CONN
*I *3581:A I *D sg13g2_dlygate4sd3_1
*I *2962:A I *D sg13g2_and2_1
*I *3352:Q O *D sg13g2_dfrbpq_1
*CAP
1 *3581:A 0
2 *2962:A 0
3 *3352:Q 0.000626725
4 *519:44 0.000874071
5 *519:36 0.00190877
6 *519:30 0.00173882
7 *519:22 0.00153385
8 *519:16 0.00145645
9 *519:16 *522:63 0
10 *519:16 *564:14 4.74808e-05
11 *519:16 *697:10 0
12 *519:16 *700:14 0.000755815
13 *519:22 *610:24 0
14 *519:22 *679:63 0
15 *519:22 *700:14 0
16 *519:30 *3326:D 4.77702e-05
17 *519:30 *610:24 0
18 *519:30 *679:24 0
19 *519:36 *569:14 0
20 *519:36 *679:32 0.000987377
21 *519:44 *580:18 0
22 *519:44 *679:36 0.00109399
23 uio_oe[5] *519:44 0
24 uio_oe[6] *519:44 0
25 *3352:CLK *519:22 0
26 *10:7 *519:36 7.30101e-05
27 *13:9 *519:36 0
28 *14:9 *519:36 0.000209705
29 *17:9 *519:22 0
30 *92:18 *519:22 0
31 *249:18 *519:44 0
32 *274:12 *519:30 0
33 *275:18 *519:44 0.000663386
34 *342:12 *519:22 8.00842e-05
35 *342:12 *519:30 0.000791992
36 *431:42 *519:16 0
*RES
1 *3352:Q *519:16 46.5714 
2 *519:16 *519:22 26.077 
3 *519:22 *519:30 46.6332 
4 *519:30 *519:36 30.6193 
5 *519:36 *519:44 49.0125 
6 *519:44 *2962:A 40 
7 *519:22 *3581:A 20 
*END

*D_NET *520 0.00609188
*CONN
*I *2963:A I *D sg13g2_and2_1
*I *3354:Q O *D sg13g2_dfrbpq_1
*CAP
1 *2963:A 0
2 *3354:Q 7.86701e-05
3 *520:28 0.000218032
4 *520:20 0.00175055
5 *520:14 0.00183597
6 *520:8 0.000382117
7 *520:8 *624:78 0
8 *520:14 *649:10 0
9 *520:20 *2949:B 0.000404267
10 *520:20 *3363:RESET_B 0.000112799
11 *520:20 *534:12 0.000388799
12 *520:20 *606:48 0
13 *520:20 *610:36 2.14736e-05
14 *520:20 *624:130 0
15 *520:28 *532:8 0
16 *520:28 *606:48 0.000145053
17 *3363:CLK *520:20 0
18 *12:11 *520:28 0
19 *32:12 *520:14 0.000432769
20 *68:19 *520:20 0
21 *68:64 *520:20 0
22 *74:20 *520:20 0
23 *242:18 *520:8 0.000177813
24 *277:28 *520:28 0.000143571
25 *347:31 *520:20 0
26 *508:30 *520:20 0
*RES
1 *3354:Q *520:8 40.8446 
2 *520:8 *520:14 42.9149 
3 *520:14 *520:20 33.6166 
4 *520:20 *520:28 41.8128 
5 *520:28 *2963:A 20 
*END

*D_NET *521 0.000423958
*CONN
*I *3551:A I *D sg13g2_buf_1
*I *3582:X O *D sg13g2_buf_1
*CAP
1 *3551:A 0.000171902
2 *3582:X 0.000171902
3 *3551:A *3534:A 0
4 *3551:A *3545:A 8.01545e-05
5 *3551:A *632:8 0
6 *3551:A *641:16 0
*RES
1 *3582:X *3551:A 41.751 
*END

*D_NET *522 0.0255648
*CONN
*I *2939:A0 I *D sg13g2_mux2_1
*I *2944:A0 I *D sg13g2_mux2_1
*I *3583:X O *D sg13g2_buf_1
*CAP
1 *2939:A0 0
2 *2944:A0 0
3 *3583:X 0.000190489
4 *522:71 0.000366642
5 *522:63 0.00128548
6 *522:48 0.00099629
7 *522:34 0.00266523
8 *522:30 0.00183418
9 *522:24 0.00108407
10 *522:20 0.00183224
11 *522:14 0.00310573
12 *522:10 0.00146398
13 *522:10 *3531:A 4.68848e-05
14 *522:10 *3545:A 1.54008e-05
15 *522:10 *626:10 5.30319e-05
16 *522:10 *626:18 0.000231152
17 *522:14 *698:45 0
18 *522:14 *702:61 0.000318426
19 *522:20 *583:32 0
20 *522:30 *666:39 0.00034042
21 *522:30 *692:53 0
22 *522:30 *701:20 0.000126445
23 *522:30 *704:26 0.00030506
24 *522:34 *703:66 0.000124949
25 *522:48 *2944:A1 0.00046649
26 *522:48 *524:10 0
27 *522:48 *583:44 0
28 *522:48 *583:60 0
29 *522:48 *625:132 0
30 *522:48 *666:16 0
31 *522:48 *691:8 0.000231428
32 *522:48 *697:46 0.000657937
33 *522:63 *564:14 0
34 *522:63 *583:44 4.77425e-05
35 *522:63 *623:46 0.000435106
36 *522:71 *3572:A 7.49633e-05
37 *522:71 *564:14 0.000465046
38 *522:71 *623:46 0
39 *522:71 *688:8 0.000180684
40 *15:29 *522:14 0
41 *20:21 *522:14 0
42 *51:54 *522:63 0
43 *54:14 *522:14 0
44 *76:12 *522:34 0.00190905
45 *76:12 *522:48 0.000550747
46 *90:14 *522:71 0
47 *90:24 *522:63 0
48 *92:18 *522:63 0.000179786
49 *149:22 *522:30 0.00113335
50 *240:18 *522:20 0
51 *246:80 *522:30 0.00119521
52 *247:24 *522:14 0
53 *265:20 *522:14 0
54 *277:10 *522:63 0.000628819
55 *288:41 *522:10 0
56 *298:22 *522:34 0
57 *298:22 *522:48 0
58 *301:28 *522:34 0.000176399
59 *348:18 *522:48 0.000499089
60 *385:44 *522:20 0
61 *416:16 *522:30 0
62 *417:18 *522:20 2.22341e-05
63 *422:89 *522:14 0.000143301
64 *433:16 *522:14 0
65 *487:10 *522:30 0
66 *487:16 *522:63 0.000181291
67 *509:14 *522:34 0
68 *519:16 *522:63 0
*RES
1 *3583:X *522:10 41.8746 
2 *522:10 *522:14 30.4854 
3 *522:14 *522:20 38.6842 
4 *522:20 *522:24 40 
5 *522:24 *522:30 33.2767 
6 *522:30 *522:34 29.0022 
7 *522:34 *522:48 31.7111 
8 *522:48 *2944:A0 20 
9 *522:34 *522:63 49.4863 
10 *522:63 *522:71 44.223 
11 *522:71 *2939:A0 40 
*END

*D_NET *523 0.00580218
*CONN
*I *2968:B I *D sg13g2_and2_1
*I *3552:X O *D sg13g2_dlygate4sd3_1
*CAP
1 *2968:B 0
2 *3552:X 0.000467139
3 *523:20 0.00144776
4 *523:14 0.0019149
5 *523:14 *2938:A0 0.000145105
6 *523:14 *554:12 6.93248e-05
7 *523:14 *623:89 1.54008e-05
8 *523:20 *554:22 0.000209056
9 *523:20 *592:78 7.30101e-05
10 *523:20 *624:130 0
11 *67:12 *523:20 0.000655863
12 *71:10 *523:14 0
13 *271:8 *523:20 0
14 *298:28 *523:14 0.00043523
15 *317:10 *523:20 0.000209056
16 *347:29 *523:20 0
17 *350:12 *523:20 0
18 *350:20 *523:14 8.0001e-05
19 *352:36 *523:14 8.0334e-05
*RES
1 *3552:X *523:14 45.0161 
2 *523:14 *523:20 32.875 
3 *523:20 *2968:B 20 
*END

*D_NET *524 0.00562011
*CONN
*I *3357:D I *D sg13g2_dfrbpq_1
*I *3553:X O *D sg13g2_dlygate4sd3_1
*CAP
1 *3357:D 0.000294762
2 *3553:X 0.000819214
3 *524:10 0.00111398
4 *3357:D *666:16 0.00129207
5 *524:10 *2944:A1 0.000595591
6 *524:10 *533:40 0
7 *524:10 *697:46 0
8 *54:34 *524:10 0.000370111
9 *76:12 *3357:D 0.00113439
10 *93:12 *524:10 0
11 *348:18 *524:10 0
12 *348:20 *524:10 0
13 *522:48 *524:10 0
*RES
1 *3553:X *524:10 48.2709 
2 *524:10 *3357:D 46.0358 
*END

*D_NET *525 0.0204941
*CONN
*I *3493:A I *D sg13g2_buf_1
*I *3554:X O *D sg13g2_dlygate4sd3_1
*CAP
1 *3493:A 0
2 *3554:X 0.00031028
3 *525:30 0
4 *525:26 0.00118069
5 *525:20 0.00218521
6 *525:14 0.00364813
7 *525:12 0.00295389
8 *525:26 *544:12 0
9 *525:26 *583:195 0
10 *525:26 *628:12 0
11 *525:26 *631:16 7.95299e-05
12 *525:26 *648:14 0
13 *8:13 *525:14 0
14 *15:21 *525:26 0.00244238
15 *16:13 *525:26 0
16 *17:13 *525:26 0.00195627
17 *151:14 *525:20 0
18 *257:22 *525:26 0
19 *258:41 *525:14 0.00573767
20 *259:53 *525:14 0
21 *267:19 *525:12 0
22 *267:25 *525:14 0
*RES
1 *3554:X *525:12 43.6153 
2 *525:12 *525:14 33.475 
3 *525:14 *525:20 49.1876 
4 *525:20 *525:26 37.4482 
5 *525:26 *525:30 40 
6 *525:30 *3493:A 20 
*END

*D_NET *526 0.00173097
*CONN
*I *3358:D I *D sg13g2_dfrbpq_1
*I *3555:X O *D sg13g2_dlygate4sd3_1
*CAP
1 *3358:D 0.000705299
2 *3555:X 0.000705299
3 *3358:D *3021:S 0
4 *3358:D *3555:A 0
5 *3358:D *598:6 0
6 *3358:D *599:36 0.000240404
7 *3358:D *638:22 0
8 *3021:A1 *3358:D 7.99721e-05
9 *3186:D *3358:D 0
10 *109:10 *3358:D 0
*RES
1 *3555:X *3358:D 47.2203 
*END

*D_NET *527 0.0193133
*CONN
*I *3360:D I *D sg13g2_dfrbpq_1
*I *3556:X O *D sg13g2_dlygate4sd3_1
*CAP
1 *3360:D 6.03403e-05
2 *3556:X 0.000250557
3 *527:26 0.00097008
4 *527:22 0.0021081
5 *527:16 0.00148438
6 *527:10 0.000536572
7 *527:10 *3063:S 0
8 *527:22 *555:22 0.0053151
9 *527:22 *628:12 0.00531543
10 *527:26 *592:39 0.000229843
11 *527:26 *629:61 0.000601499
12 *527:26 *708:18 0
13 *256:91 *527:16 0
14 *262:39 *527:16 0
15 *339:12 *527:22 0.000300663
16 *348:74 *527:26 0.00214071
17 *419:40 *527:10 0
*RES
1 *3556:X *527:10 42.2145 
2 *527:10 *527:16 42.266 
3 *527:16 *527:22 46.6255 
4 *527:22 *527:26 31.227 
5 *527:26 *3360:D 40.5356 
*END

*D_NET *528 0.00594358
*CONN
*I *3361:D I *D sg13g2_dfrbpq_1
*I *3557:X O *D sg13g2_dlygate4sd3_1
*CAP
1 *3361:D 0
2 *3557:X 0.000230935
3 *528:22 0.00135632
4 *528:16 0.0014781
5 *528:10 0.000352709
6 *528:10 *544:46 0.000177442
7 *528:10 *592:140 8.01915e-05
8 *528:22 *632:60 0.000432821
9 *528:22 *699:18 0.000181192
10 *3177:D *528:10 0
11 *71:14 *528:16 0
12 *72:10 *528:16 0.000176173
13 *246:53 *528:10 0
14 *246:53 *528:22 0
15 *318:62 *528:22 0.000712884
16 *414:60 *528:22 0
17 *416:53 *528:22 0
18 *417:28 *528:22 0.000764814
19 *504:10 *528:22 0
*RES
1 *3557:X *528:10 42.0291 
2 *528:10 *528:16 41.1845 
3 *528:16 *528:22 33.1531 
4 *528:22 *3361:D 20 
*END

*D_NET *529 0.00367036
*CONN
*I *3359:D I *D sg13g2_dfrbpq_1
*I *3558:X O *D sg13g2_dlygate4sd3_1
*CAP
1 *3359:D 0.000486356
2 *3558:X 7.99268e-05
3 *529:14 0.00110892
4 *529:8 0.000702494
5 *3628:ext_trim[14] *529:14 0
6 *6:32 *529:14 0
7 *12:11 *3359:D 0
8 *242:18 *529:8 0.000232793
9 *271:8 *3359:D 0.00105987
10 *289:41 *529:14 0
11 *345:18 *529:14 0
12 *430:27 *529:8 0
*RES
1 *3558:X *529:8 41.0918 
2 *529:8 *529:14 45.5105 
3 *529:14 *3359:D 45.047 
*END

*D_NET *530 0.0101266
*CONN
*I *3366:D I *D sg13g2_dfrbpq_1
*I *3559:X O *D sg13g2_dlygate4sd3_1
*CAP
1 *3366:D 0
2 *3559:X 0.000103661
3 *530:14 0.00143442
4 *530:8 0.00153808
5 *530:14 *630:63 0.00034079
6 *166:10 *530:14 0
7 *235:34 *530:14 0.00378372
8 *323:10 *530:14 0
9 *385:34 *530:14 0.00292593
10 *385:40 *530:14 0
11 *434:27 *530:14 0
12 *498:17 *530:14 0
*RES
1 *3559:X *530:8 40.7519 
2 *530:8 *530:14 42.3304 
3 *530:14 *3366:D 20 
*END

*D_NET *531 0.000852964
*CONN
*I *3339:D I *D sg13g2_dfrbpq_1
*I *3560:X O *D sg13g2_dlygate4sd3_1
*CAP
1 *3339:D 0.000164307
2 *3560:X 0.000190279
3 *531:8 0.000354586
4 *531:8 *577:14 0
5 *3560:A *3339:D 0.000143791
6 *43:8 *3339:D 0
*RES
1 *3560:X *531:8 41.8334 
2 *531:8 *3339:D 41.6171 
*END

*D_NET *532 0.00396362
*CONN
*I *3363:D I *D sg13g2_dfrbpq_1
*I *3561:X O *D sg13g2_dlygate4sd3_1
*CAP
1 *3363:D 0.000230109
2 *3561:X 0.00124396
3 *532:8 0.00147407
4 *3363:D *2949:B 0
5 *3363:D *606:48 0.000339766
6 *532:8 *623:89 0
7 *532:8 *624:130 0
8 *12:11 *532:8 0
9 *98:10 *532:8 0.000387123
10 *271:8 *532:8 0.000288588
11 *350:12 *532:8 0
12 *520:28 *532:8 0
*RES
1 *3561:X *532:8 49.991 
2 *532:8 *3363:D 42.266 
*END

*D_NET *533 0.0283942
*CONN
*I *2943:A0 I *D sg13g2_mux2_1
*I *2938:A0 I *D sg13g2_mux2_1
*I *3584:X O *D sg13g2_buf_1
*CAP
1 *2943:A0 0
2 *2938:A0 0.00032888
3 *3584:X 0.000792879
4 *533:48 0.000577528
5 *533:40 0.00304175
6 *533:26 0.00302107
7 *533:20 0.00189644
8 *533:16 0.00257986
9 *533:10 0.00170427
10 *2938:A0 *2943:A1 0
11 *2938:A0 *3562:A 0
12 *2938:A0 *554:12 8.0001e-05
13 *533:10 *607:14 0
14 *533:10 *623:12 0.000208035
15 *533:10 *629:12 0
16 *533:16 *692:53 0.000499613
17 *533:40 *3352:RESET_B 7.98582e-05
18 *533:40 *592:66 0
19 *533:40 *624:40 0
20 *533:40 *625:77 0
21 *533:40 *690:10 0
22 *533:40 *697:46 0
23 *533:48 *2943:A1 1.54282e-05
24 *2943:S *2938:A0 0
25 *3077:A1 *533:10 0.000208229
26 *3242:D *533:10 0.000169505
27 *20:13 *533:20 0.00552593
28 *54:34 *533:40 0.00030569
29 *71:10 *2938:A0 0.00011174
30 *93:12 *533:40 0.000144762
31 *93:18 *533:40 0
32 *163:14 *533:40 0
33 *235:28 *533:10 0
34 *235:34 *533:16 0.0020855
35 *246:90 *533:16 0
36 *247:12 *533:10 0
37 *288:61 *533:10 0
38 *292:10 *533:40 0
39 *293:22 *533:20 0
40 *297:24 *533:40 0.000759265
41 *323:10 *533:16 0.000867545
42 *323:20 *533:16 0.000659027
43 *342:12 *533:48 0
44 *348:20 *533:40 0
45 *348:28 *533:48 0.000173074
46 *348:55 *533:48 0.000230928
47 *414:32 *533:20 0.001089
48 *414:73 *533:26 0.000301629
49 *417:57 *533:26 0
50 *431:56 *533:40 0
51 *432:37 *533:16 0
52 *435:18 *533:10 0
53 *436:20 *533:16 0
54 *436:20 *533:20 0
55 *503:8 *533:40 0
56 *508:20 *533:40 0.000791635
57 *523:14 *2938:A0 0.000145105
58 *524:10 *533:40 0
*RES
1 *3584:X *533:10 47.3748 
2 *533:10 *533:16 33.5239 
3 *533:16 *533:20 45.5646 
4 *533:20 *533:26 42.0497 
5 *533:26 *533:40 45.7088 
6 *533:40 *533:48 42.5544 
7 *533:48 *2938:A0 23.673 
8 *533:48 *2943:A0 20 
*END

*D_NET *534 0.00178258
*CONN
*I *3367:D I *D sg13g2_dfrbpq_1
*I *3562:X O *D sg13g2_dlygate4sd3_1
*CAP
1 *3367:D 0
2 *3562:X 0.000364939
3 *534:12 0.000364939
4 *3354:D *534:12 0
5 *74:20 *534:12 0.000274182
6 *347:31 *534:12 0.000389716
7 *520:20 *534:12 0.000388799
*RES
1 *3562:X *534:12 44.4496 
2 *534:12 *3367:D 40 
*END

*D_NET *535 0.0010694
*CONN
*I *3338:D I *D sg13g2_dfrbpq_1
*I *3563:X O *D sg13g2_dlygate4sd3_1
*CAP
1 *3338:D 0.000349973
2 *3563:X 0.000349973
3 *3338:D *577:10 0.000369451
4 *3338:D *613:16 0
5 *3338:D *613:30 0
6 *3338:D *685:10 0
7 *3310:D *3338:D 0
8 *383:10 *3338:D 0
*RES
1 *3563:X *3338:D 43.5638 
*END

*D_NET *536 0.00425598
*CONN
*I *3314:D I *D sg13g2_dfrbpq_1
*I *3564:X O *D sg13g2_dlygate4sd3_1
*CAP
1 *3314:D 0
2 *3564:X 0.000291511
3 *536:18 0.00108785
4 *536:10 0.00137936
5 *536:10 *593:47 0
6 *536:18 *3123:S 0
7 *536:18 *593:8 0.000288377
8 *536:18 *593:19 0.00053589
9 *536:18 *593:34 0.00031912
10 *536:18 *593:47 0
11 *3288:D *536:18 0
12 *208:8 *536:18 0
13 *329:44 *536:10 0
14 *329:44 *536:18 0
15 *329:50 *536:18 0
16 *359:27 *536:18 8.0342e-05
17 *361:10 *536:18 0.000273536
18 *512:10 *536:18 0
*RES
1 *3564:X *536:10 42.8943 
2 *536:10 *536:18 32.2673 
3 *536:18 *3314:D 20 
*END

*D_NET *537 0.00231724
*CONN
*I *3336:D I *D sg13g2_dfrbpq_1
*I *3565:X O *D sg13g2_dlygate4sd3_1
*CAP
1 *3336:D 0.000357128
2 *3565:X 0.000627431
3 *537:8 0.000984559
4 *3336:D *3307:RESET_B 0
5 *3336:D *585:42 0
6 *537:8 *611:14 0
7 *3142:A0 *3336:D 0
8 *3142:A1 *3336:D 0
9 *3142:A1 *537:8 0
10 *3143:A0 *3336:D 0
11 *3307:CLK *537:8 0
12 *3565:A *537:8 0.00012874
13 *230:10 *3336:D 0.000144169
14 *230:10 *537:8 7.52158e-05
15 *381:10 *537:8 0
*RES
1 *3565:X *537:8 45.5414 
2 *537:8 *3336:D 43.3475 
*END

*D_NET *538 0.00371114
*CONN
*I *3315:D I *D sg13g2_dfrbpq_1
*I *3566:X O *D sg13g2_dlygate4sd3_1
*CAP
1 *3315:D 0
2 *3566:X 0
3 *538:10 0.00145877
4 *538:6 0.00145877
5 *538:10 *633:60 0
6 *538:10 *659:12 0.000129163
7 *360:40 *538:10 0.000664443
*RES
1 *3566:X *538:6 40 
2 *538:6 *538:10 38.1486 
3 *538:10 *3315:D 20 
*END

*D_NET *539 0.00348261
*CONN
*I *3322:D I *D sg13g2_dfrbpq_1
*I *3567:X O *D sg13g2_dlygate4sd3_1
*CAP
1 *3322:D 0.000333282
2 *3567:X 0.000604087
3 *539:8 0.000937369
4 *3322:D *585:62 0
5 *3322:D *585:75 0.000241841
6 *539:8 *584:45 0
7 *539:8 *584:51 0
8 *539:8 *622:39 0
9 uo_out[3] *539:8 0.000283647
10 *3344:CLK *3322:D 0.000209526
11 *30:16 *3322:D 0
12 *355:14 *539:8 0
13 *363:18 *539:8 0.000872853
14 *376:24 *539:8 0
*RES
1 *3567:X *539:8 46.5302 
2 *539:8 *3322:D 43.4814 
*END

*D_NET *540 0.00092672
*CONN
*I *3329:D I *D sg13g2_dfrbpq_1
*I *3568:X O *D sg13g2_dlygate4sd3_1
*CAP
1 *3329:D 0
2 *3568:X 0.000281459
3 *540:10 0.000281459
4 *540:10 *620:27 0
5 *324:14 *540:10 0
6 *325:20 *540:10 0.000181695
7 *325:22 *540:10 0.000182109
*RES
1 *3568:X *540:10 42.7707 
2 *540:10 *3329:D 40 
*END

*D_NET *541 0.00162159
*CONN
*I *3325:D I *D sg13g2_dfrbpq_1
*I *3569:X O *D sg13g2_dlygate4sd3_1
*CAP
1 *3325:D 0
2 *3569:X 0.000639572
3 *541:8 0.000639572
4 *541:8 *590:61 0.00034245
5 *541:8 *613:74 0
6 *541:8 *665:8 0
7 *374:18 *541:8 0
*RES
1 *3569:X *541:8 48.5078 
2 *541:8 *3325:D 40 
*END

*D_NET *542 0.00335981
*CONN
*I *3331:D I *D sg13g2_dfrbpq_1
*I *3570:X O *D sg13g2_dlygate4sd3_1
*CAP
1 *3331:D 0
2 *3570:X 0.000575726
3 *542:12 0.000575726
4 *327:32 *542:12 0.0011464
5 *362:18 *542:12 0.00103969
6 *511:16 *542:12 2.22695e-05
7 *512:10 *542:12 0
*RES
1 *3570:X *542:12 48.9301 
2 *542:12 *3331:D 40 
*END

*D_NET *543 0.00226097
*CONN
*I *3320:D I *D sg13g2_dfrbpq_1
*I *3571:X O *D sg13g2_dlygate4sd3_1
*CAP
1 *3320:D 0.000369966
2 *3571:X 0.000350065
3 *543:12 0.000720031
4 *3320:D *3334:D 0
5 *543:12 *616:72 0.000305878
6 *3151:B *3320:D 0
7 *74:12 *3320:D 0.000306021
8 *298:62 *3320:D 0
9 *298:77 *543:12 0
10 *300:52 *3320:D 0.000209009
11 *496:6 *543:12 0
12 *496:17 *543:12 0
*RES
1 *3571:X *543:12 43.2136 
2 *543:12 *3320:D 43.8007 
*END

*D_NET *544 0.0223953
*CONN
*I *2942:A0 I *D sg13g2_mux2_1
*I *2937:A0 I *D sg13g2_mux2_1
*I *3585:X O *D sg13g2_buf_1
*CAP
1 *2942:A0 0.000572256
2 *2937:A0 0
3 *3585:X 0
4 *544:46 0.00143233
5 *544:24 0.00345893
6 *544:22 0.00235796
7 *544:12 0.00424504
8 *544:10 0.00334143
9 *544:6 0
10 *544:12 *562:98 0
11 *544:12 *600:47 0.00126373
12 *544:12 *600:57 0.000669162
13 *544:12 *629:22 0
14 *544:12 *648:14 0
15 *544:22 *3184:RESET_B 0.000284891
16 *544:22 *627:84 0.00091787
17 *544:22 *703:35 0.000205083
18 *544:24 *3061:S 0
19 *544:24 *592:39 0
20 *544:24 *668:8 0
21 *544:24 *708:18 0
22 *544:46 *2937:A1 1.54008e-05
23 *544:46 *3554:A 0.000242124
24 *544:46 *562:30 0
25 *544:46 *592:140 0
26 *544:46 *625:100 0
27 *544:46 *625:117 0
28 *544:46 *625:132 0
29 *544:46 *700:24 0
30 *544:46 *708:18 0
31 *2936:S *544:46 8.00842e-05
32 *2941:S *2942:A0 4.21165e-05
33 *2942:S *2942:A0 0
34 *3177:D *544:46 0
35 *3311:D *544:22 0
36 *3311:D *544:24 0
37 *3360:CLK *544:24 0
38 *3486:A *544:24 0
39 *6:14 *544:24 0
40 *6:48 *544:22 0
41 *16:13 *544:12 0
42 *75:22 *2942:A0 0
43 *95:18 *2942:A0 0.000272949
44 *244:10 *544:46 0.000685152
45 *244:38 *2942:A0 0
46 *244:38 *544:46 0.000706204
47 *256:16 *544:12 0
48 *256:30 *544:12 0
49 *298:28 *544:46 0.000403131
50 *348:18 *544:24 0
51 *505:8 *544:24 0.000877143
52 *506:8 *2942:A0 0.000144887
53 *525:26 *544:12 0
54 *528:10 *544:46 0.000177442
*RES
1 *3585:X *544:6 40 
2 *544:6 *544:10 40 
3 *544:10 *544:12 31.2502 
4 *544:12 *544:22 48.7138 
5 *544:22 *544:24 15.4294 
6 *544:24 *544:46 35.3161 
7 *544:46 *2937:A0 20 
8 *544:24 *2942:A0 45.4487 
*END

*D_NET *545 0.00192774
*CONN
*I *3362:D I *D sg13g2_dfrbpq_1
*I *3572:X O *D sg13g2_dlygate4sd3_1
*CAP
1 *3362:D 0.000260713
2 *3572:X 0.000397498
3 *545:10 0.000658211
4 *3362:D *564:14 0
5 *3362:D *649:10 0.000403179
6 *545:10 *3572:A 0
7 *545:10 *688:8 0
8 *90:14 *3362:D 0
9 *342:12 *545:10 0
10 *350:6 *3362:D 0.000208137
*RES
1 *3572:X *545:10 43.3887 
2 *545:10 *3362:D 42.9149 
*END

*D_NET *546 0.00497071
*CONN
*I *3323:D I *D sg13g2_dfrbpq_1
*I *3573:X O *D sg13g2_dlygate4sd3_1
*CAP
1 *3323:D 0.000141078
2 *3573:X 0.000408309
3 *546:8 0.000549388
4 *3323:D *585:23 0
5 *546:8 *583:127 0.00187929
6 uo_out[2] *546:8 0.00199265
7 *3296:CLK *546:8 0
*RES
1 *3573:X *546:8 49.2494 
2 *546:8 *3323:D 40.4453 
*END

*D_NET *547 0.000733354
*CONN
*I *3328:D I *D sg13g2_dfrbpq_1
*I *3574:X O *D sg13g2_dlygate4sd3_1
*CAP
1 *3328:D 0
2 *3574:X 0.000366677
3 *547:8 0.000366677
*RES
1 *3574:X *547:8 43.5638 
2 *547:8 *3328:D 40 
*END

*D_NET *548 0.002691
*CONN
*I *3317:D I *D sg13g2_dfrbpq_1
*I *3575:X O *D sg13g2_dlygate4sd3_1
*CAP
1 *3317:D 0.00021115
2 *3575:X 0.000391493
3 *548:8 0.000602643
4 *3317:D *621:75 0
5 *548:8 *595:18 0.00119826
6 *548:8 *622:52 0
7 *328:71 *3317:D 0.000208227
8 *376:10 *3317:D 7.92265e-05
*RES
1 *3575:X *548:8 45.5414 
2 *548:8 *3317:D 42.1836 
*END

*D_NET *549 0.00467353
*CONN
*I *3334:D I *D sg13g2_dfrbpq_1
*I *3576:X O *D sg13g2_dlygate4sd3_1
*CAP
1 *3334:D 0.000939882
2 *3576:X 0.000265171
3 *549:12 0.00120505
4 *3334:D *559:10 0.000112474
5 *3334:D *561:36 0.000272834
6 *3334:D *616:60 1.54008e-05
7 *549:12 *559:16 0.0002802
8 *549:12 *561:44 0.000124699
9 *549:12 *582:151 0
10 *3166:A *3334:D 0.000941283
11 *3166:B *3334:D 0
12 *3320:D *3334:D 0
13 *74:12 *3334:D 0
14 *298:62 *3334:D 0.000161986
15 *364:22 *549:12 0.000209454
16 *365:48 *3334:D 0.000145099
*RES
1 *3576:X *549:12 43.09 
2 *549:12 *3334:D 49.8056 
*END

*D_NET *550 0.000654403
*CONN
*I *3321:D I *D sg13g2_dfrbpq_1
*I *3577:X O *D sg13g2_dlygate4sd3_1
*CAP
1 *3321:D 0.000194936
2 *3577:X 0.000194936
3 *29:24 *3321:D 0
4 *39:34 *3321:D 0.000264531
*RES
1 *3577:X *3321:D 42.2145 
*END

*D_NET *551 0.0041975
*CONN
*I *3324:D I *D sg13g2_dfrbpq_1
*I *3578:X O *D sg13g2_dlygate4sd3_1
*CAP
1 *3324:D 0.000162865
2 *3578:X 0.000522326
3 *551:10 0.000685191
4 *3324:D *3145:S 0
5 uo_out[1] *551:10 0.00141412
6 *3310:D *3324:D 0
7 *41:8 *3324:D 0
8 *281:20 *551:10 0.001413
9 *328:56 *551:10 0
10 *339:40 *551:10 0
*RES
1 *3578:X *551:10 48.7962 
2 *551:10 *3324:D 41.4008 
*END

*D_NET *552 9.45957e-05
*CONN
*I *3330:D I *D sg13g2_dfrbpq_1
*I *3579:X O *D sg13g2_dlygate4sd3_1
*CAP
1 *3330:D 4.72978e-05
2 *3579:X 4.72978e-05
*RES
1 *3579:X *3330:D 40.5974 
*END

*D_NET *553 0.00276616
*CONN
*I *3337:D I *D sg13g2_dfrbpq_1
*I *3580:X O *D sg13g2_dlygate4sd3_1
*CAP
1 *3337:D 3.38934e-05
2 *3580:X 0.000587339
3 *553:10 0.000621232
4 *553:10 *576:16 0
5 *553:10 *576:24 0.000128662
6 *553:10 *611:98 0
7 *553:10 *612:122 0.000235055
8 *553:10 *685:10 0
9 *3309:CLK *553:10 0.000208178
10 *3338:CLK *553:10 0.000236057
11 *317:62 *553:10 0.000715749
12 *339:50 *553:10 0
*RES
1 *3580:X *553:10 47.6529 
2 *553:10 *3337:D 40.3193 
*END

*D_NET *554 0.00891696
*CONN
*I *2968:A I *D sg13g2_and2_1
*I *3581:X O *D sg13g2_dlygate4sd3_1
*CAP
1 *2968:A 0
2 *3581:X 0.000937407
3 *554:22 0.00154127
4 *554:12 0.00247867
5 *554:12 *3312:RESET_B 4.77425e-05
6 *554:22 *667:8 0
7 *2938:A0 *554:12 8.0001e-05
8 *2943:S *554:12 0
9 *3433:A *554:22 0
10 *71:10 *554:22 0.000128781
11 *73:8 *554:22 0.00165392
12 *238:22 *554:22 0.000333978
13 *243:61 *554:12 0.000533424
14 *296:8 *554:22 0.000112341
15 *298:28 *554:12 0
16 *317:10 *554:22 0
17 *351:20 *554:22 0.000791044
18 *508:30 *554:22 0
19 *523:14 *554:12 6.93248e-05
20 *523:20 *554:22 0.000209056
*RES
1 *3581:X *554:12 48.5593 
2 *554:12 *554:22 37.1598 
3 *554:22 *2968:A 20 
*END

*D_NET *555 0.0223669
*CONN
*I *2941:A0 I *D sg13g2_mux2_1
*I *2936:A0 I *D sg13g2_mux2_1
*I *3586:X O *D sg13g2_buf_1
*CAP
1 *2941:A0 2.29724e-05
2 *2936:A0 0
3 *3586:X 0.000771183
4 *555:40 0.000452857
5 *555:30 0.00047583
6 *555:28 3.26605e-05
7 *555:22 0.00318254
8 *555:20 0.00352898
9 *555:12 0.00115028
10 *2941:A0 *2941:A1 1.53827e-05
11 *555:12 *3534:A 0
12 *555:12 *626:10 0.000111685
13 *555:12 *632:8 0
14 *555:12 *701:127 0
15 *555:20 *628:12 0.000864995
16 *555:40 *2941:A1 0.000401822
17 *15:29 *555:12 0
18 *17:13 *555:22 0
19 *18:25 *555:12 8.00842e-05
20 *244:38 *555:40 0.00017721
21 *257:18 *555:22 0
22 *257:22 *555:20 0
23 *257:22 *555:22 0.00475165
24 *352:16 *555:12 0.000597328
25 *506:8 *2941:A0 3.24568e-05
26 *506:8 *555:40 0.000401894
27 *527:22 *555:22 0.0053151
*RES
1 *3586:X *555:12 46.9525 
2 *555:12 *555:20 44.2745 
3 *555:20 *555:22 43.466 
4 *555:22 *555:28 40.3193 
5 *555:28 *555:30 20 
6 *555:30 *555:40 44.7277 
7 *555:40 *2936:A0 20 
8 *555:30 *2941:A0 20.3193 
*END

*D_NET *556 0.00670701
*CONN
*I *3595:A I *D sg13g2_buf_1
*I *2957:X O *D sg13g2_and2_1
*CAP
1 *3595:A 0
2 *2957:X 0.000278909
3 *556:18 3.33294e-05
4 *556:12 0.00142231
5 *556:8 0.00166789
6 *556:8 *558:24 0
7 *556:12 *561:48 0
8 *556:12 *573:14 0.00246719
9 *556:12 *608:82 0
10 *3166:B *556:8 0.000240684
11 *25:26 *556:8 0.000330789
12 *30:20 *556:12 0
13 *380:38 *556:12 0
14 *511:30 *556:18 0.0001251
15 *512:22 *556:18 0.000125347
16 *513:24 *556:8 1.54556e-05
*RES
1 *2957:X *556:8 42.9149 
2 *556:8 *556:12 36.3255 
3 *556:12 *556:18 40.5974 
4 *556:18 *3595:A 20 
*END

*D_NET *557 0.00880229
*CONN
*I *3596:A I *D sg13g2_buf_1
*I *2958:X O *D sg13g2_and2_1
*CAP
1 *3596:A 0
2 *2958:X 0.000263359
3 *557:18 0.000159522
4 *557:12 0.00214801
5 *557:8 0.00225184
6 *557:12 *606:28 0.000728442
7 *557:18 *584:20 0
8 *557:18 *584:45 0
9 uio_out[4] *557:8 0
10 uo_out[2] *557:18 0
11 *25:34 *557:8 0.000125175
12 *26:18 *557:12 0
13 *27:14 *557:12 0
14 *379:20 *557:8 0
15 *511:36 *557:12 0.00124741
16 *512:30 *557:12 0.000793558
17 *515:14 *557:12 0.00108498
*RES
1 *2958:X *557:8 42.0806 
2 *557:8 *557:12 40.8678 
3 *557:12 *557:18 41.0918 
4 *557:18 *3596:A 20 
*END

*D_NET *558 0.0107375
*CONN
*I *3597:A I *D sg13g2_buf_1
*I *2959:X O *D sg13g2_and2_1
*CAP
1 *3597:A 0.000805918
2 *2959:X 0.00011404
3 *558:42 0.00134139
4 *558:24 0.00222638
5 *558:8 0.00180496
6 *3597:A *3307:RESET_B 0
7 *3597:A *560:30 0.000597204
8 *3597:A *571:18 0
9 *3597:A *584:14 0
10 *3597:A *611:64 0
11 *558:24 *2954:B 0
12 *558:24 *3141:S 0.000176396
13 *558:24 *570:8 0
14 *558:24 *571:18 0.000403133
15 *558:24 *572:14 7.94462e-05
16 *558:24 *608:50 0
17 *558:42 *2952:B 4.06811e-05
18 *558:42 *570:8 0.000402468
19 *558:42 *571:18 0
20 *558:42 *606:20 0
21 *558:42 *612:39 0
22 uio_out[5] *558:8 0.00022762
23 *2952:A *3597:A 5.38152e-05
24 *2954:A *558:24 0
25 *3166:A *558:24 0.000176365
26 *3294:D *558:24 0.000111901
27 *3304:D *558:42 0.00017622
28 *25:26 *3597:A 0.000467837
29 *25:26 *558:24 0
30 *25:26 *558:42 4.77699e-05
31 *364:22 *558:24 0.000984971
32 *513:24 *558:24 0
33 *514:30 *558:24 0.000498989
34 *556:8 *558:24 0
*RES
1 *2959:X *558:8 41.0918 
2 *558:8 *558:24 37.2525 
3 *558:24 *558:42 45.4024 
4 *558:42 *3597:A 28.5078 
*END

*D_NET *559 0.0106128
*CONN
*I *3598:A I *D sg13g2_buf_1
*I *2960:X O *D sg13g2_and2_1
*CAP
1 *3598:A 0
2 *2960:X 0.000134784
3 *559:22 0.000443983
4 *559:16 0.00267922
5 *559:10 0.00237003
6 *559:16 *560:18 0
7 *559:16 *579:32 0
8 *559:16 *588:46 0
9 *559:16 *595:83 0
10 *559:16 *608:16 0.000317918
11 *559:22 *566:12 0.00138076
12 *559:22 *586:102 0
13 *559:22 *588:8 0
14 *2959:A *559:16 0.000908199
15 *3166:B *559:10 0
16 *3334:D *559:10 0.000112474
17 *3340:D *559:22 0.000806311
18 *64:8 *559:16 0
19 *245:43 *559:16 0
20 *279:20 *559:22 0
21 *364:28 *559:16 0
22 *516:22 *559:16 0.00117895
23 *549:12 *559:16 0.0002802
*RES
1 *2960:X *559:10 41.3184 
2 *559:10 *559:16 46.0693 
3 *559:16 *559:22 46.5302 
4 *559:22 *3598:A 20 
*END

*D_NET *560 0.0111412
*CONN
*I *3599:A I *D sg13g2_buf_1
*I *2961:X O *D sg13g2_and2_1
*CAP
1 *3599:A 0
2 *2961:X 0.00032849
3 *560:30 0.000492348
4 *560:22 0.0031708
5 *560:18 0.00297872
6 *560:10 0.000628756
7 *560:10 *579:24 0.000401872
8 *560:10 *609:30 7.51285e-05
9 *560:10 *616:58 0
10 *560:18 *579:24 0
11 *560:22 *561:48 0
12 *560:22 *581:22 0
13 *560:30 *3528:A 0.000335039
14 *560:30 *611:64 0.000672332
15 uo_out[3] *560:30 0
16 *3597:A *560:30 0.000597204
17 *66:22 *560:10 0.000401872
18 *238:14 *560:22 0
19 *364:18 *560:22 0.00105868
20 *364:28 *560:18 0
21 *365:8 *560:10 0
22 *559:16 *560:18 0
*RES
1 *2961:X *560:10 43.5432 
2 *560:10 *560:18 42.4308 
3 *560:18 *560:22 44.3286 
4 *560:22 *560:30 45.7989 
5 *560:30 *3599:A 20 
*END

*D_NET *561 0.017413
*CONN
*I *3600:A I *D sg13g2_buf_1
*I *2962:X O *D sg13g2_and2_1
*CAP
1 *3600:A 0
2 *2962:X 6.00695e-05
3 *561:52 0
4 *561:48 0.00281772
5 *561:44 0.00305583
6 *561:36 0.000900309
7 *561:24 0.0011311
8 *561:16 0.000773154
9 *561:8 0.000364324
10 *561:24 *569:10 0.000176083
11 *561:24 *606:48 0.00059919
12 *561:36 *569:10 0.000306108
13 *561:36 *609:30 0.000177583
14 *561:36 *616:60 0.00020837
15 *561:48 *581:22 0
16 uio_oe[5] *561:8 0.000176399
17 *3128:A0 *561:44 3.23417e-05
18 *3166:A *561:44 0.000234634
19 *3166:B *561:24 0
20 *3166:B *561:36 0
21 *3334:D *561:36 0.000272834
22 *25:44 *561:36 1.54008e-05
23 *30:20 *561:48 0
24 *89:14 *561:48 0.0015513
25 *216:8 *561:36 0.000177583
26 *297:46 *561:16 0.000434174
27 *297:46 *561:24 0.000403709
28 *298:50 *561:8 0.000124862
29 *298:50 *561:16 0.000434146
30 *364:18 *561:48 0.0010574
31 *364:22 *561:44 0.000111568
32 *365:48 *561:36 0.000145099
33 *380:38 *561:48 0.00142244
34 *517:10 *561:16 0.000124547
35 *549:12 *561:44 0.000124699
36 *556:12 *561:48 0
37 *560:22 *561:48 0
*RES
1 *2962:X *561:8 40.8446 
2 *561:8 *561:16 43.5123 
3 *561:16 *561:24 45.0882 
4 *561:24 *561:36 47.0246 
5 *561:36 *561:44 42.4308 
6 *561:44 *561:48 48.4383 
7 *561:48 *561:52 40 
8 *561:52 *3600:A 20 
*END

*D_NET *562 0.0362807
*CONN
*I *2999:B_N I *D sg13g2_nor2b_1
*I *3146:A1 I *D sg13g2_a21o_1
*I *3000:B I *D sg13g2_nand2b_1
*I *3587:X O *D sg13g2_buf_1
*CAP
1 *2999:B_N 6.12177e-05
2 *3146:A1 0.000687162
3 *3000:B 0.000572061
4 *3587:X 0.000157825
5 *562:106 0.000708722
6 *562:98 0.00137907
7 *562:75 0.00166952
8 *562:71 0.000577737
9 *562:63 0.00194965
10 *562:32 0.00219476
11 *562:30 0.000778689
12 *562:14 0.00270623
13 *562:10 0.00208537
14 *3000:B *2940:A_N 0
15 *3000:B *3172:RESET_B 0.000112596
16 *3000:B *3554:A 0.000209899
17 *3000:B *569:22 0
18 *3000:B *639:38 0.00028396
19 *3000:B *700:24 0.000305692
20 *3000:B *708:18 0.000339583
21 *3146:A1 *3012:A 0
22 *3146:A1 *629:47 0
23 *562:10 *2949:B 4.75425e-05
24 *562:10 *3364:D 4.75425e-05
25 *562:10 *690:26 0.0002802
26 *562:14 *610:20 0.000695358
27 *562:14 *639:38 0.00118098
28 *562:14 *690:26 0.00241585
29 *562:30 *569:22 0.000124547
30 *562:30 *674:14 0
31 *562:30 *699:18 0
32 *562:63 *2940:A_N 0
33 *562:63 *639:32 0.000232181
34 *562:63 *639:38 0.000762976
35 *562:63 *674:14 0
36 *562:71 *617:14 0.00146609
37 *562:106 *629:28 0.000126358
38 *3177:D *562:30 7.86681e-05
39 *7:9 *562:14 0
40 *10:7 *562:10 0.000178388
41 *15:9 *562:14 0
42 *101:14 *3146:A1 0.000111711
43 *103:10 *3146:A1 0.000240377
44 *108:14 *562:63 0.000707222
45 *234:8 *3146:A1 0
46 *243:12 *562:75 0
47 *243:12 *562:98 0
48 *243:35 *562:30 0
49 *244:38 *3000:B 0
50 *244:38 *562:30 7.9225e-05
51 *246:53 *562:30 0
52 *247:44 *562:63 0
53 *249:18 *562:14 0.00293467
54 *256:16 *562:98 0.000823454
55 *256:48 *3000:B 0
56 *272:14 *562:71 0.00141218
57 *297:10 *562:63 0
58 *311:14 *3146:A1 0
59 *311:25 *3146:A1 0
60 *322:18 *562:106 0
61 *343:20 *562:63 0
62 *351:71 *562:63 0.000443366
63 *417:40 *562:63 2.20248e-05
64 *422:20 *562:98 4.63914e-05
65 *422:24 *562:75 0.00060357
66 *422:24 *562:98 0.00108031
67 *483:10 *3146:A1 0
68 *484:10 *562:98 0.000820849
69 *485:8 *562:106 0.000976911
70 *486:16 *562:106 0.00156203
71 *544:12 *562:98 0
72 *544:46 *562:30 0
*RES
1 *3587:X *562:10 41.9055 
2 *562:10 *562:14 44.5449 
3 *562:14 *562:30 47.107 
4 *562:30 *562:32 20 
5 *562:32 *3000:B 46.2006 
6 *562:32 *562:63 36.4388 
7 *562:63 *562:71 47.0967 
8 *562:71 *562:75 22.8222 
9 *562:75 *3146:A1 45.9299 
10 *562:75 *562:98 49.8262 
11 *562:98 *562:106 49.0125 
12 *562:106 *2999:B_N 40.5356 
*END

*D_NET *563 0.0260396
*CONN
*I *3601:A I *D sg13g2_buf_1
*I *2963:X O *D sg13g2_and2_1
*CAP
1 *3601:A 0
2 *2963:X 0
3 *563:26 0
4 *563:22 0.00403683
5 *563:20 0.00403683
6 *563:18 0.00143003
7 *563:14 0.00220764
8 *563:6 0.000777606
9 *563:14 *600:81 0.000870083
10 *563:14 *623:100 0
11 *563:14 *679:8 0.000412293
12 *563:14 *679:24 2.14736e-05
13 *563:22 *573:28 0
14 *563:22 *583:32 0
15 *20:13 *563:22 0
16 *31:12 *563:22 0.0103445
17 *71:14 *563:18 0
18 *72:10 *563:18 0
19 *89:18 *563:18 0.000704919
20 *92:14 *563:14 0
21 *352:26 *563:22 0
22 *414:48 *563:22 0.00106818
23 *414:56 *563:22 0.000129248
24 *416:37 *563:22 0
*RES
1 *2963:X *563:6 40 
2 *563:6 *563:14 47.8074 
3 *563:14 *563:18 32.2158 
4 *563:18 *563:20 20 
5 *563:20 *563:22 60.4198 
6 *563:22 *563:26 40 
7 *563:26 *3601:A 40 
*END

*D_NET *564 0.00503292
*CONN
*I *3602:A I *D sg13g2_buf_1
*I *2967:Y O *D sg13g2_nor2_1
*CAP
1 *3602:A 0
2 *2967:Y 0.000366635
3 *564:14 0.00148021
4 *564:8 0.00184685
5 *564:8 *625:58 0
6 *564:8 *700:14 0.000811298
7 *564:14 *623:140 0
8 *3353:D *564:8 0
9 *3362:D *564:14 0
10 *3433:A *564:14 0
11 *3434:A *564:14 0
12 *67:12 *564:14 0
13 *90:24 *564:14 1.54008e-05
14 *248:16 *564:14 0
15 *350:6 *564:14 0
16 *350:12 *564:14 0
17 *519:16 *564:14 4.74808e-05
18 *522:63 *564:14 0
19 *522:71 *564:14 0.000465046
*RES
1 *2967:Y *564:8 43.811 
2 *564:8 *564:14 33.6475 
3 *564:14 *3602:A 20 
*END

*D_NET *565 0.00571915
*CONN
*I *3603:A I *D sg13g2_buf_1
*I *2950:X O *D sg13g2_and2_1
*CAP
1 *3603:A 0.000761408
2 *2950:X 0.00056361
3 *565:8 0.00132502
4 *3603:A *575:14 0
5 *3603:A *590:18 0.000356152
6 *3603:A *590:36 0.00024131
7 *565:8 *696:10 0
8 *2992:A1 *3603:A 8.00842e-05
9 *2994:A2 *3603:A 0
10 *3309:CLK *3603:A 0.000143936
11 *239:30 *3603:A 0.000854982
12 *279:20 *565:8 0.00139265
13 *385:72 *3603:A 0
14 *424:20 *565:8 0
*RES
1 *2950:X *565:8 47.0246 
2 *565:8 *3603:A 48.1061 
*END

*D_NET *566 0.00847242
*CONN
*I *3604:A I *D sg13g2_buf_1
*I *2951:X O *D sg13g2_and2_1
*CAP
1 *3604:A 0
2 *2951:X 0.000821525
3 *566:30 0.0011882
4 *566:20 0.00152697
5 *566:12 0.00116029
6 *566:12 *2987:A0 0
7 *566:12 *3496:A 0.000144587
8 *566:12 *612:84 0.000272718
9 *566:20 *590:36 0
10 *566:30 *3145:S 0
11 *566:30 *610:82 0.000369743
12 *566:30 *610:90 0.000272718
13 *566:30 *613:10 0.000143351
14 uo_out[6] *566:12 0
15 uo_out[7] *566:12 0
16 *3067:A0 *566:20 0
17 *3573:A *566:30 8.00842e-05
18 *34:12 *566:30 2.21754e-05
19 *36:12 *566:20 0.000280912
20 *156:8 *566:12 0.000598704
21 *385:72 *566:20 0.000209681
22 *559:22 *566:12 0.00138076
*RES
1 *2951:X *566:12 49.9498 
2 *566:12 *566:20 43.2342 
3 *566:20 *566:30 31.3197 
4 *566:30 *3604:A 20 
*END

*D_NET *567 0.0100707
*CONN
*I *3605:A I *D sg13g2_buf_1
*I *2952:X O *D sg13g2_and2_1
*CAP
1 *3605:A 0
2 *2952:X 0
3 *567:12 0.00142079
4 *567:6 0.00142079
5 *567:12 *3067:S 0
6 *567:12 *584:57 0.00123538
7 *567:12 *586:39 0.000272718
8 *567:12 *608:10 0
9 *567:12 *622:10 0.000332693
10 *567:12 *622:37 0.000232431
11 *567:12 *641:50 0.00119334
12 uo_out[4] *567:12 0.00396258
13 *280:14 *567:12 0
*RES
1 *2952:X *567:6 40 
2 *567:6 *567:12 41.3725 
3 *567:12 *3605:A 20 
*END

*D_NET *568 0.00842902
*CONN
*I *3606:A I *D sg13g2_buf_1
*I *2953:X O *D sg13g2_and2_1
*CAP
1 *3606:A 0
2 *2953:X 0.000624615
3 *568:16 0.00124812
4 *568:8 0.00187274
5 *568:16 *585:8 0.000698893
6 *568:16 *585:14 0.00012816
7 uo_out[5] *568:16 0.000282459
8 *2953:A *568:8 0
9 *3304:CLK *568:16 0
10 *7:25 *568:16 0.00144331
11 *13:21 *568:8 0.000175721
12 *29:24 *568:8 0.000143379
13 *37:12 *568:16 0.00118462
14 *299:28 *568:16 8.00394e-05
15 *339:16 *568:16 0
16 *366:60 *568:8 0.000466876
17 *514:16 *568:16 8.00842e-05
18 *514:30 *568:16 0
*RES
1 *2953:X *568:8 45.7268 
2 *568:8 *568:16 34.8011 
3 *568:16 *3606:A 20 
*END

*D_NET *569 0.0137554
*CONN
*I *3517:A I *D sg13g2_buf_1
*I *2945:X O *D sg13g2_and2_1
*CAP
1 *3517:A 0
2 *2945:X 0.000349057
3 *569:22 0.000464387
4 *569:14 0.00427752
5 *569:12 0.00381313
6 *569:10 0.000349057
7 *569:14 *600:81 0
8 *569:14 *628:30 0
9 *569:14 *679:32 0.00104425
10 *569:22 *2940:B 0
11 *569:22 *674:14 0.00017734
12 *569:22 *700:24 0
13 *3000:B *569:22 0
14 *3166:B *569:10 0.000338223
15 *10:9 *569:14 0.00232032
16 *11:9 *569:14 0
17 *13:9 *569:14 0
18 *14:9 *569:14 0
19 *15:9 *569:22 0
20 *20:11 *569:14 0
21 *242:10 *569:14 0
22 *243:47 *569:14 0
23 *256:48 *569:22 1.54282e-05
24 *519:36 *569:14 0
25 *561:24 *569:10 0.000176083
26 *561:36 *569:10 0.000306108
27 *562:30 *569:22 0.000124547
*RES
1 *2945:X *569:10 43.605 
2 *569:10 *569:12 20 
3 *569:12 *569:14 40.5511 
4 *569:14 *569:22 44.3775 
5 *569:22 *3517:A 20 
*END

*D_NET *570 0.0119189
*CONN
*I *3608:A I *D sg13g2_buf_1
*I *2954:X O *D sg13g2_and2_1
*CAP
1 *3608:A 0
2 *2954:X 0.00052214
3 *570:14 0.00227701
4 *570:8 0.00279915
5 *570:8 *3304:RESET_B 0
6 *570:8 *571:18 0
7 *570:14 *580:46 0.000112426
8 *570:14 *583:121 0.00113248
9 *570:14 *614:76 0.000333805
10 *570:14 *614:87 0.000707656
11 uo_out[4] *570:14 0
12 *3127:A0 *570:14 0
13 *3304:D *570:8 0
14 *3318:D *570:14 0
15 *7:25 *570:14 0
16 *30:16 *570:14 0.000124547
17 *33:8 *570:14 0.00170518
18 *47:10 *570:14 0.000175693
19 *215:12 *570:14 0
20 *281:28 *570:14 0.000181192
21 *436:36 *570:14 0.00144516
22 *514:30 *570:14 0
23 *558:24 *570:8 0
24 *558:42 *570:8 0.000402468
*RES
1 *2954:X *570:8 44.6453 
2 *570:8 *570:14 46.0075 
3 *570:14 *3608:A 20 
*END

*D_NET *571 0.00584788
*CONN
*I *3609:A I *D sg13g2_buf_1
*I *2955:X O *D sg13g2_and2_1
*CAP
1 *3609:A 0
2 *2955:X 0.000112496
3 *571:18 0.0015911
4 *571:8 0.0017036
5 *571:8 *608:34 0
6 *571:18 *2952:B 8.01118e-05
7 *571:18 *3139:S 0
8 *571:18 *3141:S 0.00011101
9 *571:18 *3304:RESET_B 4.77425e-05
10 *571:18 *3307:RESET_B 0
11 *571:18 *611:64 0.000597204
12 *571:18 *612:39 0.000240876
13 *3142:A0 *571:18 2.21754e-05
14 *3158:A *571:18 0.000241195
15 *3597:A *571:18 0
16 *27:10 *571:18 0
17 *30:16 *571:18 0
18 *355:14 *571:18 0
19 *514:30 *571:18 0.000466603
20 *515:14 *571:8 0.000230625
21 *558:24 *571:18 0.000403133
22 *558:42 *571:18 0
23 *570:8 *571:18 0
*RES
1 *2955:X *571:8 41.0918 
2 *571:8 *571:18 35.8311 
3 *571:18 *3609:A 20 
*END

*D_NET *572 0.00575525
*CONN
*I *3610:A I *D sg13g2_buf_1
*I *2956:X O *D sg13g2_and2_1
*CAP
1 *3610:A 0
2 *2956:X 0.000430166
3 *572:30 0.00133306
4 *572:14 0.00176323
5 *572:14 *608:50 0
6 *572:30 *3340:RESET_B 8.00842e-05
7 uio_out[0] *572:14 0.0010323
8 uio_out[1] *572:14 0
9 *3154:B *572:30 0
10 *77:12 *572:30 0
11 *294:20 *572:30 0.000240789
12 *355:25 *572:30 0
13 *376:24 *572:30 0.00014454
14 *380:12 *572:14 0.000158528
15 *380:18 *572:14 0.000493095
16 *558:24 *572:14 7.94462e-05
*RES
1 *2956:X *572:14 45.974 
2 *572:14 *572:30 32.0922 
3 *572:30 *3610:A 20 
*END

*D_NET *573 0.0301712
*CONN
*I *3020:A1 I *D sg13g2_mux2_1
*I *3588:X O *D sg13g2_buf_1
*CAP
1 *3020:A1 0
2 *3588:X 0
3 *573:34 0.000652872
4 *573:28 0.0014469
5 *573:22 0.00544935
6 *573:20 0.00488601
7 *573:14 0.00232806
8 *573:6 0.00209737
9 *573:14 *581:10 0.000508093
10 *573:14 *608:58 0.000571925
11 *573:22 *579:32 0
12 *573:22 *582:141 0.000145837
13 *573:22 *583:70 0.0039768
14 *573:22 *617:22 0.00177933
15 uio_out[4] *573:20 0.000907391
16 *11:9 *573:14 0
17 *16:9 *573:22 0.0015533
18 *29:32 *573:22 0.00047237
19 *30:20 *573:14 0
20 *238:14 *573:22 0
21 *245:16 *573:22 0
22 *247:52 *573:34 0
23 *297:14 *573:34 0
24 *300:30 *573:22 0
25 *352:26 *573:28 0
26 *379:8 *573:20 0.0004931
27 *379:20 *573:20 0.000435266
28 *496:23 *573:22 0
29 *512:36 *573:14 0
30 *556:12 *573:14 0.00246719
31 *563:22 *573:28 0
*RES
1 *3588:X *573:6 40 
2 *573:6 *573:14 43.7003 
3 *573:14 *573:20 44.3054 
4 *573:20 *573:22 52.6639 
5 *573:22 *573:28 46.5302 
6 *573:28 *573:34 45.2942 
7 *573:34 *3020:A1 20 
*END

*D_NET *574 0.0253132
*CONN
*I *3611:A I *D sg13g2_buf_1
*I *2989:X O *D sg13g2_mux4_1
*CAP
1 *3611:A 0.000535932
2 *2989:X 0
3 *574:8 0.00388434
4 *574:6 0.00334841
5 *3611:A *3145:S 0
6 *3611:A *582:49 0
7 *3611:A *582:55 0
8 *574:8 *3126:S 0.000317954
9 *574:8 *3217:RESET_B 0.000586759
10 *574:8 *586:61 0.00151405
11 *574:8 *595:12 0
12 *574:8 *595:18 0
13 *574:8 *595:31 0
14 *574:8 *619:73 0.00103302
15 *574:8 *621:22 0.000340704
16 *3163:B *574:8 0.000341119
17 *38:10 *3611:A 4.77425e-05
18 *270:44 *574:8 0
19 *294:26 *574:8 0.00311579
20 *294:41 *574:8 0.0057818
21 *353:52 *574:8 0.000820068
22 *362:24 *574:8 0
23 *409:25 *574:8 0.00154466
24 *409:31 *574:8 0.00210081
*RES
1 *2989:X *574:6 40 
2 *574:6 *574:8 53.9926 
3 *574:8 *3611:A 44.7792 
*END

*D_NET *575 0.00844921
*CONN
*I *3612:A I *D sg13g2_buf_1
*I *2992:Y O *D sg13g2_o21ai_1
*CAP
1 *3612:A 0
2 *2992:Y 0.00118921
3 *575:18 0.000726142
4 *575:14 0.00191536
5 *575:14 *2981:A1 0.000755154
6 *575:14 *577:10 0
7 *575:18 *582:55 0.000928378
8 *575:18 *613:16 0
9 *575:18 *685:10 0.00023547
10 *2992:B1 *575:14 1.54008e-05
11 *2996:A2 *575:14 0
12 *3144:A1 *575:18 7.57164e-05
13 *3145:A0 *575:18 0.000128663
14 *3309:CLK *575:14 0.00017734
15 *3603:A *575:14 0
16 *328:32 *575:18 0.000927139
17 *328:43 *575:18 0.000768037
18 *383:12 *575:18 0.000607195
19 *384:26 *575:18 0
20 *512:10 *575:18 0
*RES
1 *2992:Y *575:14 31.2373 
2 *575:14 *575:18 31.9686 
3 *575:18 *3612:A 40 
*END

*D_NET *576 0.00795802
*CONN
*I *3613:A I *D sg13g2_buf_1
*I *2994:Y O *D sg13g2_o21ai_1
*CAP
1 *3613:A 0
2 *2994:Y 0.000130316
3 *576:24 0.000771433
4 *576:16 0.00253438
5 *576:8 0.00189326
6 *576:8 *590:36 2.22695e-05
7 *576:16 *3296:RESET_B 0
8 *576:16 *3521:A 0.000148557
9 *576:16 *582:45 0
10 *576:16 *584:51 0.000175693
11 *576:16 *586:20 0.00014391
12 *576:16 *611:98 0
13 *576:16 *612:97 0
14 *576:16 *612:107 0
15 *576:24 *577:14 0
16 *3309:CLK *576:16 0.000206049
17 *3338:CLK *576:24 0.0010361
18 *7:35 *576:8 0.000436699
19 *245:43 *576:8 0.000330693
20 *339:50 *576:24 0
21 *553:10 *576:16 0
22 *553:10 *576:24 0.000128662
*RES
1 *2994:Y *576:8 42.0806 
2 *576:8 *576:16 35.2646 
3 *576:16 *576:24 30.4133 
4 *576:24 *3613:A 40 
*END

*D_NET *577 0.00545528
*CONN
*I *3614:A I *D sg13g2_buf_1
*I *2996:Y O *D sg13g2_o21ai_1
*CAP
1 *3614:A 0.000106162
2 *2996:Y 0.00120839
3 *577:14 0.00109493
4 *577:10 0.00219716
5 *3614:A *3325:RESET_B 0
6 *577:10 *2981:A1 0
7 *577:10 *613:16 0
8 *577:10 *685:10 0
9 *577:14 *613:30 0.000399086
10 *577:14 *613:61 0
11 *577:14 *613:74 0
12 *3338:D *577:10 0.000369451
13 *3345:D *577:10 8.01116e-05
14 *3560:A *3614:A 0
15 *44:8 *3614:A 0
16 *339:46 *577:14 0
17 *339:50 *577:14 0
18 *511:22 *577:10 0
19 *531:8 *577:14 0
20 *575:14 *577:10 0
21 *576:24 *577:14 0
*RES
1 *2996:Y *577:10 30.7223 
2 *577:10 *577:14 30.9798 
3 *577:14 *3614:A 40.9682 
*END

*D_NET *578 0.00327076
*CONN
*I *3615:A I *D sg13g2_buf_1
*I *2998:Y O *D sg13g2_o21ai_1
*CAP
1 *3615:A 3.46921e-05
2 *2998:Y 0.000543316
3 *578:10 0.000578008
4 *578:10 *610:90 0.000283221
5 *578:10 *614:76 0.000281802
6 *578:10 *614:87 0.000845143
7 *255:26 *578:10 0.000112426
8 *299:30 *578:10 0
9 *354:33 *578:10 0.000447608
10 *514:16 *578:10 0.000144542
*RES
1 *2998:Y *578:10 47.1276 
2 *578:10 *3615:A 40.3193 
*END

*D_NET *579 0.0221838
*CONN
*I *3616:A I *D sg13g2_buf_1
*I *2947:X O *D sg13g2_and2_1
*CAP
1 *3616:A 0
2 *2947:X 0.000218574
3 *579:64 0.00141548
4 *579:56 0.00149774
5 *579:50 0.00146139
6 *579:44 0.0017859
7 *579:38 0.000702073
8 *579:32 0.000940802
9 *579:24 0.00177881
10 *579:20 0.00162046
11 *579:12 0.000705725
12 *579:12 *610:58 0
13 *579:20 *609:20 0.000305433
14 *579:20 *609:84 0.000226527
15 *579:20 *609:95 0.000194213
16 *579:24 *3319:RESET_B 0
17 *579:24 *609:20 0.000991019
18 *579:24 *609:30 0.000434184
19 *579:32 *588:46 0
20 *579:32 *676:12 0.000281001
21 *579:38 *618:55 0
22 *579:44 *3069:S 0
23 *579:50 *3068:S 0.000272718
24 *579:50 *3233:RESET_B 4.77425e-05
25 *579:50 *587:39 8.00842e-05
26 *579:50 *595:73 0
27 *579:50 *595:83 0
28 *579:50 *614:18 0.000338485
29 *579:50 *615:85 0.000209056
30 *579:50 *615:98 0.000144956
31 *579:56 *608:16 0.00015025
32 *579:64 *2980:A0 0.000175324
33 *579:64 *2980:S 0
34 *579:64 *3144:S 0
35 *579:64 *585:23 0
36 *579:64 *587:18 1.53666e-05
37 *579:64 *612:84 0
38 *579:64 *684:12 0.000208001
39 uio_oe[6] *579:12 0.000335184
40 uio_out[4] *579:44 0.00155026
41 *3342:CLK *579:20 0.000306984
42 *7:31 *579:64 0.000272931
43 *39:48 *579:38 0.000304688
44 *48:18 *579:50 0.000143351
45 *66:22 *579:24 0
46 *66:22 *579:38 0.000402508
47 *246:12 *579:50 0
48 *246:12 *579:64 0
49 *294:10 *579:50 0
50 *297:46 *579:12 0.000282463
51 *300:38 *579:12 0.000233251
52 *300:38 *579:20 0
53 *300:52 *579:20 0
54 *317:22 *579:50 0.000340051
55 *343:50 *579:64 0
56 *343:89 *579:64 7.99388e-05
57 *349:22 *579:12 0
58 *379:8 *579:44 0.000181681
59 *424:20 *579:50 0
60 *424:39 *579:44 0.00101944
61 *517:10 *579:20 0.00012785
62 *518:18 *579:20 0
63 *559:16 *579:32 0
64 *560:10 *579:24 0.000401872
65 *560:18 *579:24 0
66 *573:22 *579:32 0
*RES
1 *2947:X *579:12 43.2445 
2 *579:12 *579:20 45.459 
3 *579:20 *579:24 31.1343 
4 *579:24 *579:32 45.3663 
5 *579:32 *579:38 43.1312 
6 *579:38 *579:44 47.2718 
7 *579:44 *579:50 33.3694 
8 *579:50 *579:56 40.9682 
9 *579:56 *579:64 32.6387 
10 *579:64 *3616:A 20 
*END

*D_NET *580 0.0223483
*CONN
*I *3617:A I *D sg13g2_buf_1
*I *2948:X O *D sg13g2_and2_1
*CAP
1 *3617:A 0
2 *2948:X 0.00037442
3 *580:46 7.06043e-05
4 *580:40 0.000630876
5 *580:32 0.00294433
6 *580:28 0.00428467
7 *580:24 0.00224579
8 *580:18 0.00152297
9 *580:10 0.00155221
10 *580:10 *3364:D 0.000111037
11 *580:18 *679:36 0.000891329
12 *580:28 *616:72 0
13 *580:28 *677:12 0
14 *580:32 *586:12 0.000621184
15 *580:32 *586:20 4.82481e-05
16 *580:32 *595:63 0
17 *580:32 *614:14 0
18 *580:32 *618:24 0.000473143
19 *580:40 *641:42 0.00110269
20 *580:40 *641:73 0.000537829
21 uio_oe[7] *580:10 0
22 *3151:B *580:10 0.000111037
23 *7:9 *580:18 0.00111795
24 *10:9 *580:24 0
25 *12:13 *580:32 0
26 *13:9 *580:24 0
27 *34:16 *580:32 0
28 *249:12 *580:10 0
29 *275:18 *580:18 0.000274737
30 *300:52 *580:28 0.00118303
31 *300:69 *580:28 0.000104122
32 *343:20 *580:32 0.000899484
33 *344:32 *580:32 0
34 *365:8 *580:28 0
35 *427:53 *580:28 0
36 *436:30 *580:32 0
37 *489:23 *580:28 0
38 *492:19 *580:28 0
39 *517:16 *580:18 0.000826503
40 *517:24 *580:24 0.000307667
41 *519:44 *580:18 0
42 *570:14 *580:46 0.000112426
*RES
1 *2948:X *580:10 42.8325 
2 *580:10 *580:18 33.9977 
3 *580:18 *580:24 43.3475 
4 *580:24 *580:28 35.6766 
5 *580:28 *580:32 46.2753 
6 *580:32 *580:40 48.0546 
7 *580:40 *580:46 40.7519 
8 *580:46 *3617:A 20 
*END

*D_NET *581 0.0210637
*CONN
*I *3618:A I *D sg13g2_buf_1
*I *2949:X O *D sg13g2_and2_1
*CAP
1 *3618:A 5.82356e-05
2 *2949:X 0
3 *581:22 0.00227846
4 *581:16 0.00246821
5 *581:10 0.00368298
6 *581:8 0.00343499
7 *581:6 0
8 *581:10 *587:94 0
9 *581:10 *595:91 0.000508928
10 *581:10 *600:81 0
11 *581:10 *609:40 0
12 *581:10 *610:48 0.000863421
13 *581:10 *618:90 0.000408906
14 *581:22 *614:41 0
15 uo_out[2] *581:22 0.00198577
16 uo_out[3] *581:22 0
17 *3130:A1 *581:22 0.000761498
18 *3296:CLK *581:22 0.000746176
19 *11:9 *581:10 0
20 *25:34 *581:10 0
21 *30:20 *581:10 0
22 *39:22 *581:22 0
23 *92:14 *581:10 0.00178516
24 *228:8 *581:16 0
25 *238:10 *581:16 0.000542373
26 *317:82 *581:22 0.000127991
27 *355:14 *581:22 0
28 *365:12 *581:10 0.000293693
29 *365:22 *581:10 0.000378803
30 *365:48 *581:10 0.000229972
31 *366:46 *581:22 0
32 *368:10 *581:22 0
33 *560:22 *581:22 0
34 *561:48 *581:22 0
35 *573:14 *581:10 0.000508093
*RES
1 *2949:X *581:6 40 
2 *581:6 *581:8 20 
3 *581:8 *581:10 36.4414 
4 *581:10 *581:16 42.575 
5 *581:16 *581:22 45.9422 
6 *581:22 *3618:A 40.5356 
*END

*D_NET *582 0.0343078
*CONN
*I *2985:S I *D sg13g2_mux2_1
*I *2987:S I *D sg13g2_mux2_1
*I *2984:S I *D sg13g2_mux2_1
*I *2981:S I *D sg13g2_mux2_1
*I *2982:S I *D sg13g2_mux2_1
*I *2983:S I *D sg13g2_mux2_1
*I *2976:S I *D sg13g2_mux2_1
*I *2980:S I *D sg13g2_mux2_1
*I *3492:X O *D sg13g2_buf_1
*CAP
1 *2985:S 0
2 *2987:S 0
3 *2984:S 9.82885e-05
4 *2981:S 0
5 *2982:S 0
6 *2983:S 0
7 *2976:S 0
8 *2980:S 0.000597774
9 *3492:X 3.13837e-05
10 *582:151 0.000305391
11 *582:141 0.000403557
12 *582:135 0.000586254
13 *582:127 0.00135812
14 *582:112 0.00149
15 *582:75 0.00181916
16 *582:69 0.00254384
17 *582:59 0.000769566
18 *582:55 0.00123017
19 *582:49 0.00125388
20 *582:45 0.000708233
21 *582:39 0.000842373
22 *582:22 0.00132324
23 *582:18 0.00118228
24 *582:10 0.00118122
25 *582:8 3.13837e-05
26 *2980:S *584:51 0.000446432
27 *2984:S *3068:S 0.00016052
28 *582:8 *606:12 0.000126005
29 *582:18 *606:12 0
30 *582:18 *612:14 0
31 *582:18 *612:16 0
32 *582:22 *3068:S 0.000209223
33 *582:22 *585:14 0
34 *582:39 *584:51 0.000474594
35 *582:39 *595:12 0
36 *582:45 *583:127 0
37 *582:45 *622:39 0.00182511
38 *582:49 *2982:A0 0
39 *582:55 *2982:A0 0
40 *582:55 *664:8 0.000661144
41 *582:59 *2983:A0 0
42 *582:69 *2983:A0 0
43 *582:112 *583:101 0.00014398
44 *582:112 *583:109 0.000486485
45 *582:127 *2987:A0 0
46 *582:127 *583:101 0.000482146
47 *582:127 *615:85 0
48 *582:127 *618:55 0
49 *582:135 *615:33 0.000181071
50 *582:135 *615:46 0.000306524
51 *582:135 *615:63 0.000242098
52 *582:151 *2985:A0 1.54282e-05
53 *582:151 *2985:A1 0
54 *582:151 *587:88 0.000176396
55 *582:151 *590:16 0
56 *582:151 *694:8 7.30101e-05
57 uio_out[3] *582:127 0
58 uio_out[3] *582:135 0.000499927
59 *3125:A0 *582:75 0.000555909
60 *3131:A1 *582:45 0.000922645
61 *3132:A0 *582:45 0.000284686
62 *3297:D *582:55 8.00842e-05
63 *3298:D *582:59 6.4771e-05
64 *3298:D *582:69 8.01392e-05
65 *3309:CLK *582:39 4.77425e-05
66 *3309:CLK *582:45 0.000240492
67 *3570:A *582:75 0
68 *3611:A *582:49 0
69 *3611:A *582:55 0
70 *7:35 *582:18 0
71 *29:24 *582:151 0.000208063
72 *33:14 *582:18 0
73 *33:14 *582:112 0
74 *38:10 *582:45 0
75 *39:48 *582:135 0.000274182
76 *41:8 *582:55 0
77 *48:18 *2984:S 0.000175693
78 *48:18 *582:22 4.75151e-05
79 *66:22 *582:135 0
80 *217:12 *582:151 1.54285e-05
81 *225:8 *582:75 0.000287672
82 *238:14 *582:141 0
83 *245:43 *582:8 0.000126005
84 *245:43 *582:18 0
85 *245:43 *582:112 0
86 *294:26 *2980:S 0.000446761
87 *294:26 *582:39 0.000653651
88 *294:63 *582:127 0
89 *300:77 *582:127 0
90 *324:14 *582:75 0
91 *324:16 *582:75 0
92 *324:18 *582:75 0
93 *324:24 *582:75 0
94 *324:32 *582:69 0
95 *324:32 *582:75 0.000980659
96 *325:28 *582:69 0
97 *328:43 *582:55 0
98 *343:50 *2980:S 0
99 *344:47 *582:135 0.0001773
100 *361:12 *582:75 0.00219049
101 *365:22 *582:151 0
102 *369:19 *582:45 0.000127936
103 *371:25 *582:55 0
104 *371:25 *582:69 0.000979579
105 *375:8 *582:75 0
106 *512:10 *582:55 0
107 *512:10 *582:75 0
108 *549:12 *582:151 0
109 *573:22 *582:141 0.000145837
110 *575:18 *582:55 0.000928378
111 *576:16 *582:45 0
112 *579:64 *2980:S 0
*RES
1 *3492:X *582:8 40.5974 
2 *582:8 *582:10 20 
3 *582:10 *582:18 44.3157 
4 *582:18 *582:22 24.429 
5 *582:22 *2980:S 46.2547 
6 *582:22 *582:39 23.3887 
7 *582:39 *582:45 30.1249 
8 *582:45 *582:49 20.7519 
9 *582:49 *582:55 32.3188 
10 *582:55 *582:59 20.5356 
11 *582:59 *582:69 48.5593 
12 *582:69 *582:75 44.6479 
13 *582:75 *2976:S 40 
14 *582:59 *2983:S 20 
15 *582:49 *2982:S 20 
16 *582:39 *2981:S 20 
17 *582:18 *2984:S 21.1845 
18 *582:10 *582:112 46.695 
19 *582:112 *2987:S 20 
20 *582:112 *582:127 47.9413 
21 *582:127 *582:135 46.1079 
22 *582:135 *582:141 40.9682 
23 *582:141 *582:151 43.2754 
24 *582:151 *2985:S 20 
*END

*D_NET *583 0.0775538
*CONN
*I *2970:A I *D sg13g2_nand2_1
*I *2971:A I *D sg13g2_nand3_1
*I *2986:S I *D sg13g2_mux2_1
*I *3492:A I *D sg13g2_buf_1
*I *2978:S I *D sg13g2_mux2_1
*I *2977:S I *D sg13g2_mux2_1
*I *2979:S I *D sg13g2_mux2_1
*I *2929:A I *D sg13g2_inv_1
*I *3493:X O *D sg13g2_buf_1
*CAP
1 *2970:A 0
2 *2971:A 8.17917e-05
3 *2986:S 0
4 *3492:A 0
5 *2978:S 0
6 *2977:S 0.000543278
7 *2979:S 2.58641e-05
8 *2929:A 0.000578469
9 *3493:X 9.33146e-05
10 *583:195 0.000744083
11 *583:154 0.00123633
12 *583:146 0.00155976
13 *583:127 0.00358447
14 *583:125 0.00315663
15 *583:121 0.00100758
16 *583:113 0.000682714
17 *583:109 0.000521132
18 *583:101 0.000923028
19 *583:95 0.0014555
20 *583:91 0.00091375
21 *583:87 0.00058443
22 *583:70 0.00321972
23 *583:66 0.00239906
24 *583:60 0.00182907
25 *583:44 0.00202007
26 *583:36 0.0010802
27 *583:32 0.002932
28 *583:26 0.00232858
29 *583:20 0.000913973
30 *583:10 0.00163272
31 *583:8 9.33146e-05
32 *2929:A *606:48 8.03692e-05
33 *2929:A *618:90 0.000859686
34 *2977:S *2976:A1 0
35 *2977:S *2977:A1 0
36 *2977:S *658:14 0
37 *583:8 *592:20 0
38 *583:20 *625:20 0.000181273
39 *583:20 *631:16 0
40 *583:20 *648:12 0
41 *583:36 *3356:RESET_B 0.000286378
42 *583:36 *625:24 0.00244544
43 *583:44 *3357:RESET_B 0.000175693
44 *583:44 *623:46 0.000272718
45 *583:60 *592:66 0
46 *583:66 *3572:A 0
47 *583:66 *679:8 0
48 *583:87 *618:90 0.000603856
49 *583:95 *587:80 0.000386247
50 *583:95 *587:116 0.000879187
51 *583:113 *615:14 0.000225118
52 *583:121 *615:14 0.000241167
53 *583:127 *622:39 0
54 *583:127 *661:10 0
55 *583:146 *620:57 0.000128662
56 *583:154 *682:10 0.000235347
57 *583:195 *631:16 0
58 *583:195 *648:12 0
59 uo_out[2] *583:127 0
60 *2950:A *583:113 0.000175693
61 *3131:A1 *583:127 0
62 *3147:B *583:60 0
63 *3166:B *2929:A 0
64 *3242:CLK *583:8 0.000144913
65 *3296:CLK *583:127 0.000762929
66 *3318:D *583:121 0.000176252
67 *3341:CLK *583:87 0.000143248
68 *3350:D *583:146 0
69 *12:13 *583:125 0.000469957
70 *34:16 *583:125 0
71 *38:10 *583:127 0
72 *51:12 *2929:A 0
73 *51:12 *583:87 0
74 *56:12 *2977:S 0
75 *64:16 *583:87 0.000887423
76 *66:8 *583:101 0
77 *68:39 *583:60 0
78 *235:28 *583:8 4.78772e-05
79 *236:20 *583:195 0.00044129
80 *239:20 *583:87 0.000175761
81 *240:18 *583:32 0
82 *241:10 *583:20 0
83 *245:16 *583:70 0.00276546
84 *245:37 *583:95 0
85 *245:43 *583:95 0.000614664
86 *245:43 *583:109 0.000472372
87 *246:76 *583:32 0
88 *248:16 *583:60 0.00056369
89 *256:68 *583:32 7.81165e-05
90 *273:30 *583:20 0
91 *288:41 *583:195 0
92 *292:10 *583:60 0
93 *298:22 *583:44 0
94 *298:22 *583:60 0
95 *298:77 *583:87 0
96 *299:60 *583:146 0.00183613
97 *299:71 *583:146 0.000426659
98 *317:43 *583:113 1.54008e-05
99 *317:43 *583:121 0.000241167
100 *320:33 *583:20 0.000815081
101 *323:10 *583:20 0.000498295
102 *326:32 *583:127 0
103 *326:40 *583:127 0.00124657
104 *327:28 *583:154 0
105 *328:56 *583:127 0.000875675
106 *328:71 *583:127 0
107 *342:12 *583:66 0
108 *343:28 *583:101 0.000500409
109 *343:36 *583:101 0.000467611
110 *344:91 *583:195 0.000231428
111 *346:54 *583:195 0
112 *346:75 *583:195 0
113 *352:16 *583:195 0
114 *352:26 *583:32 0.00162303
115 *354:51 *583:127 0.00173142
116 *354:51 *583:146 0.00218824
117 *416:43 *583:36 0.000813157
118 *417:18 *583:32 0
119 *431:56 *583:60 0
120 *432:16 *583:60 0.000112568
121 *487:10 *583:36 0.00181329
122 *487:29 *583:20 0.00086835
123 *493:16 *583:60 0.000903203
124 *512:10 *583:154 0
125 *513:10 *583:127 0
126 *513:10 *583:146 0
127 *514:30 *583:121 0.00113561
128 *522:20 *583:32 0
129 *522:48 *583:44 0
130 *522:48 *583:60 0
131 *522:63 *583:44 4.77425e-05
132 *525:26 *583:195 0
133 *546:8 *583:127 0.00187929
134 *563:22 *583:32 0
135 *570:14 *583:121 0.00113248
136 *573:22 *583:70 0.0039768
137 *582:45 *583:127 0
138 *582:112 *583:101 0.00014398
139 *582:112 *583:109 0.000486485
140 *582:127 *583:101 0.000482146
*RES
1 *3493:X *583:8 40.9682 
2 *583:8 *583:10 20 
3 *583:10 *583:20 31.5669 
4 *583:20 *583:26 40.3193 
5 *583:26 *583:32 46.3474 
6 *583:32 *583:36 32.7102 
7 *583:36 *583:44 44.1612 
8 *583:44 *583:60 34.7496 
9 *583:60 *583:66 43.0694 
10 *583:66 *583:70 46.2753 
11 *583:70 *2929:A 45.8298 
12 *583:70 *583:87 27.3748 
13 *583:87 *583:91 40 
14 *583:91 *583:95 30.7017 
15 *583:95 *583:101 46.3757 
16 *583:101 *583:109 43.9758 
17 *583:109 *583:113 21.6171 
18 *583:113 *583:121 48.4254 
19 *583:121 *583:125 25.2942 
20 *583:125 *583:127 34.4638 
21 *583:127 *2979:S 40.3193 
22 *583:127 *583:146 35.0277 
23 *583:146 *583:154 46.2624 
24 *583:154 *2977:S 21.9766 
25 *583:146 *2978:S 20 
26 *583:113 *3492:A 20 
27 *583:87 *2986:S 20 
28 *583:44 *2971:A 40.7519 
29 *583:10 *583:195 47.6941 
30 *583:195 *2970:A 20 
*END

*D_NET *584 0.0467002
*CONN
*I *2988:A I *D sg13g2_nor2_1
*I *2990:A I *D sg13g2_nor2b_1
*I *2989:S1 I *D sg13g2_mux4_1
*I *2945:A I *D sg13g2_and2_1
*I *3589:X O *D sg13g2_buf_1
*CAP
1 *2988:A 5.76858e-05
2 *2990:A 0
3 *2989:S1 0.000167774
4 *2945:A 0
5 *3589:X 0.000629982
6 *584:84 0.000236428
7 *584:72 0.000482343
8 *584:59 0.00292566
9 *584:57 0.00457463
10 *584:51 0.00305628
11 *584:45 0.00167001
12 *584:32 0.000159792
13 *584:26 0.000826948
14 *584:20 0.00279251
15 *584:14 0.00337403
16 *584:14 *3307:RESET_B 0
17 *584:20 *606:20 0
18 *584:20 *606:44 0.000112777
19 *584:20 *679:46 0
20 *584:45 *585:75 0.000241841
21 *584:45 *622:37 0.000209384
22 *584:51 *3528:A 0.000809772
23 *584:51 *595:12 0.000182023
24 *584:57 *589:12 0.000449137
25 *584:57 *589:62 0.0007729
26 *584:57 *608:10 0.00086799
27 *584:57 *621:8 0.000160219
28 *584:57 *621:14 0.000557987
29 *584:57 *621:58 0.000268679
30 *584:57 *641:73 0
31 *584:59 *3052:S 0.000586257
32 *584:59 *589:89 0.000980493
33 *584:59 *594:14 0.0012018
34 *584:59 *637:10 0
35 *584:59 *641:89 0.00452994
36 *584:72 *595:41 7.51285e-05
37 *584:72 *637:10 0
38 *584:84 *595:41 7.87725e-05
39 *584:84 *634:31 0
40 *584:84 *637:10 0
41 uo_out[2] *584:45 0
42 uo_out[3] *584:20 0
43 uo_out[3] *584:45 0
44 uo_out[3] *584:51 0
45 uo_out[4] *584:57 0
46 *2980:S *584:51 0.000446432
47 *3597:A *584:14 0
48 *7:25 *584:20 0.00251724
49 *10:9 *584:20 0
50 *13:9 *584:20 0
51 *26:10 *584:45 0
52 *26:18 *584:26 0
53 *26:26 *584:26 0.000891044
54 *27:14 *584:14 0
55 *27:14 *584:26 0.00124787
56 *59:14 *584:14 0.000306734
57 *251:12 *584:84 0
58 *270:42 *584:57 0.00248716
59 *270:44 *584:57 0
60 *280:14 *584:57 0
61 *294:26 *584:51 0
62 *299:54 *584:57 0
63 *299:54 *584:59 0.00194937
64 *326:10 *584:59 0
65 *326:10 *584:72 0
66 *353:27 *584:59 0.000820153
67 *355:14 *584:45 0.000335587
68 *363:18 *584:51 0
69 *376:24 *584:51 0.000337555
70 *512:30 *584:14 0.000436189
71 *539:8 *584:45 0
72 *539:8 *584:51 0
73 *557:18 *584:20 0
74 *557:18 *584:45 0
75 *567:12 *584:57 0.00123538
76 *576:16 *584:51 0.000175693
77 *582:39 *584:51 0.000474594
*RES
1 *3589:X *584:14 46.4393 
2 *584:14 *584:20 42.7939 
3 *584:20 *584:26 48.3224 
4 *584:26 *584:32 41.0918 
5 *584:32 *2945:A 20 
6 *584:14 *584:45 45.9225 
7 *584:45 *584:51 32.1643 
8 *584:51 *584:57 46.3783 
9 *584:57 *584:59 35.947 
10 *584:59 *2989:S1 41.4137 
11 *584:59 *584:72 21.5862 
12 *584:72 *584:84 42.4514 
13 *584:84 *2990:A 20 
14 *584:72 *2988:A 20.5356 
*END

*D_NET *585 0.0153939
*CONN
*I *3068:S I *D sg13g2_mux2_1
*I *3139:S I *D sg13g2_mux2_1
*I *3127:S I *D sg13g2_mux2_1
*I *3130:S I *D sg13g2_mux2_1
*I *3143:S I *D sg13g2_mux2_1
*I *3142:S I *D sg13g2_mux2_1
*I *3144:S I *D sg13g2_mux2_1
*I *3131:S I *D sg13g2_mux2_1
*I *3494:X O *D sg13g2_buf_1
*CAP
1 *3068:S 0.000423418
2 *3139:S 0.000529788
3 *3127:S 0
4 *3130:S 0
5 *3143:S 0
6 *3142:S 0
7 *3144:S 8.04288e-05
8 *3131:S 4.72978e-05
9 *3494:X 0.000173347
10 *585:75 0.00103691
11 *585:62 0.000970458
12 *585:48 0.000232382
13 *585:42 0.000480887
14 *585:38 0.00133141
15 *585:23 0.00132155
16 *585:14 0.00108358
17 *585:8 0.00101149
18 *3139:S *622:20 0.000885965
19 *585:23 *2980:A1 0.000112426
20 *585:42 *3336:RESET_B 8.03417e-05
21 *585:62 *3336:RESET_B 6.44559e-05
22 *585:62 *611:31 0
23 *585:62 *611:37 0
24 *585:75 *622:20 0.000133647
25 *585:75 *622:37 0
26 uo_out[0] *585:38 0
27 uo_out[0] *585:48 0
28 *2984:S *3068:S 0.00016052
29 *3127:A1 *585:75 0
30 *3131:A0 *585:14 1.54008e-05
31 *3131:A0 *585:23 0.000305406
32 *3142:A0 *585:42 0
33 *3142:A1 *585:48 0
34 *3143:A0 *585:42 0
35 *3144:A0 *3144:S 0
36 *3309:D *3144:S 0
37 *3322:D *585:62 0
38 *3322:D *585:75 0.000241841
39 *3323:D *585:23 0
40 *3336:D *585:42 0
41 *3336:CLK *585:42 0
42 *3344:CLK *585:75 0
43 *30:16 *3139:S 0.000112426
44 *30:16 *585:75 0
45 *39:8 *585:38 0.000180812
46 *46:8 *585:38 0.000927562
47 *230:10 *585:48 0
48 *246:12 *3068:S 0.000402085
49 *343:89 *585:14 0
50 *366:60 *585:62 1.54285e-05
51 *366:60 *585:75 0
52 *376:34 *585:75 0
53 *380:30 *3139:S 0.000208293
54 *512:10 *585:38 0
55 *512:22 *585:38 0
56 *514:30 *3139:S 0.000467272
57 *514:30 *585:8 0.000677151
58 *514:30 *585:14 0.000129089
59 *568:16 *585:8 0.000698893
60 *568:16 *585:14 0.00012816
61 *571:18 *3139:S 0
62 *579:50 *3068:S 0.000272718
63 *579:64 *3144:S 0
64 *579:64 *585:23 0
65 *582:22 *3068:S 0.000209223
66 *582:22 *585:14 0
67 *584:45 *585:75 0.000241841
*RES
1 *3494:X *585:8 43.3166 
2 *585:8 *585:14 23.9449 
3 *585:14 *3131:S 20.5974 
4 *585:14 *585:23 5.7268 
5 *585:23 *3144:S 20.8858 
6 *585:23 *585:38 47.7662 
7 *585:38 *585:42 2.6162 
8 *585:42 *585:48 42.575 
9 *585:48 *3142:S 20 
10 *585:42 *3143:S 20 
11 *585:38 *585:62 4.1612 
12 *585:62 *3130:S 20 
13 *585:62 *585:75 5.2942 
14 *585:75 *3127:S 20 
15 *585:75 *3139:S 26.1594 
16 *585:8 *3068:S 44.6453 
*END

*D_NET *586 0.021695
*CONN
*I *3141:S I *D sg13g2_mux2_1
*I *3067:S I *D sg13g2_mux2_1
*I *3126:S I *D sg13g2_mux2_1
*I *3133:S I *D sg13g2_mux2_1
*I *3132:S I *D sg13g2_mux2_1
*I *3145:S I *D sg13g2_mux2_1
*I *3494:A I *D sg13g2_buf_1
*I *3495:X O *D sg13g2_buf_1
*CAP
1 *3141:S 0.000111173
2 *3067:S 0.000213691
3 *3126:S 5.43301e-05
4 *3133:S 0.000637213
5 *3132:S 0
6 *3145:S 0.0004106
7 *3494:A 0
8 *3495:X 0
9 *586:106 0.0014579
10 *586:102 0.00157759
11 *586:61 0.00108191
12 *586:41 0.000877885
13 *586:39 0.00117228
14 *586:35 0.000709043
15 *586:31 0.000531051
16 *586:20 0.000110665
17 *586:12 0.00083598
18 *586:4 0.000605857
19 *3067:S *590:40 0
20 *3126:S *595:12 0.000295857
21 *3133:S *3291:RESET_B 0
22 *3145:S *613:16 0.000121782
23 *586:12 *614:14 0.000504234
24 *586:12 *618:18 4.77699e-05
25 *586:20 *614:14 4.669e-05
26 *586:31 *641:42 0
27 *586:35 *590:40 0
28 *586:61 *595:12 0.00204821
29 *586:102 *3496:A 0.000177583
30 *586:102 *588:10 0.000103389
31 *586:102 *618:18 8.00842e-05
32 *586:106 *3496:A 0.000753692
33 *586:106 *595:73 0.00012559
34 *586:106 *614:33 0.000647849
35 *586:106 *618:10 0
36 *3126:A1 *3133:S 0
37 *3133:A0 *3133:S 0
38 *3291:D *3133:S 0
39 *3309:CLK *586:12 4.77699e-05
40 *3309:CLK *586:20 0.00014391
41 *3309:CLK *586:102 6.46834e-05
42 *3310:D *3145:S 4.92926e-05
43 *3324:D *3145:S 0
44 *3339:CLK *3133:S 1.54008e-05
45 *3340:D *586:102 0.000125015
46 *3345:CLK *586:39 0.000208035
47 *3345:CLK *586:41 1.54008e-05
48 *3611:A *3145:S 0
49 *13:21 *586:106 0
50 *34:12 *3145:S 0
51 *34:16 *586:12 0
52 *37:12 *586:35 0
53 *47:10 *586:61 0.000447792
54 *77:12 *586:106 0.000335639
55 *227:8 *586:106 0
56 *241:26 *586:31 0
57 *252:16 *586:31 0
58 *255:20 *586:31 0.000293875
59 *294:26 *586:61 0
60 *317:16 *586:102 7.98567e-05
61 *328:56 *3133:S 0.000596185
62 *383:10 *3145:S 1.54008e-05
63 *436:36 *3067:S 0.000323552
64 *436:36 *586:35 0.000387803
65 *515:14 *586:106 0
66 *558:24 *3141:S 0.000176396
67 *559:22 *586:102 0
68 *566:30 *3145:S 0
69 *567:12 *3067:S 0
70 *567:12 *586:39 0.000272718
71 *571:18 *3141:S 0.00011101
72 *574:8 *3126:S 0.000317954
73 *574:8 *586:61 0.00151405
74 *576:16 *586:20 0.00014391
75 *580:32 *586:12 0.000621184
76 *580:32 *586:20 4.82481e-05
*RES
1 *3495:X *586:4 20 
2 *586:4 *586:12 44.532 
3 *586:12 *586:20 41.2875 
4 *586:20 *3494:A 20 
5 *586:12 *586:31 44.0582 
6 *586:31 *586:35 21.8334 
7 *586:35 *586:39 23.1312 
8 *586:39 *586:41 3.9964 
9 *586:41 *3145:S 24.2024 
10 *586:41 *3132:S 20 
11 *586:39 *586:61 29.4966 
12 *586:61 *3133:S 46.1594 
13 *586:61 *3126:S 41.4729 
14 *586:35 *3067:S 42.5544 
15 *586:4 *586:102 42.7295 
16 *586:102 *586:106 32.2158 
17 *586:106 *3141:S 41.1845 
*END

*D_NET *587 0.0201282
*CONN
*I *3084:S I *D sg13g2_mux2_1
*I *3071:S I *D sg13g2_mux2_1
*I *3129:S I *D sg13g2_mux2_1
*I *3140:S I *D sg13g2_mux2_1
*I *3070:S I *D sg13g2_mux2_1
*I *3069:S I *D sg13g2_mux2_1
*I *3082:S I *D sg13g2_mux2_1
*I *3083:S I *D sg13g2_mux2_1
*I *3496:X O *D sg13g2_buf_1
*CAP
1 *3084:S 2.38549e-05
2 *3071:S 0.000303778
3 *3129:S 3.33203e-05
4 *3140:S 0
5 *3070:S 0
6 *3069:S 0.000214229
7 *3082:S 0
8 *3083:S 0
9 *3496:X 0.00095098
10 *587:116 0.00129373
11 *587:94 0.00049498
12 *587:88 0.00118012
13 *587:80 0.00185159
14 *587:76 0.000494943
15 *587:65 0.00026126
16 *587:54 0.000820086
17 *587:39 0.000260495
18 *587:24 0.000328286
19 *587:18 0.00162463
20 *3071:S *3072:S 0
21 *587:18 *612:84 0.000144733
22 *587:18 *670:24 0
23 *587:18 *696:10 0.000176369
24 *587:39 *588:38 8.00842e-05
25 *587:88 *590:16 0
26 *587:88 *616:45 0.000180368
27 *587:88 *694:8 0.000912057
28 uio_oe[3] *587:116 0
29 uio_out[2] *587:24 0.000339977
30 uio_out[2] *587:39 0.000543868
31 uio_out[3] *3069:S 0
32 uio_out[3] *587:54 0
33 uio_out[5] *587:88 0.000698766
34 *3072:A0 *3071:S 7.55059e-05
35 *3084:A0 *587:76 7.99037e-05
36 *3166:A *3129:S 4.77702e-05
37 *3233:D *587:18 0.000338077
38 *3248:D *587:54 0.000143418
39 *25:34 *587:94 0.000376101
40 *30:20 *587:94 0.000899776
41 *51:22 *587:18 0.00072574
42 *51:22 *587:54 0.00037158
43 *66:8 *587:18 0
44 *66:8 *587:54 0
45 *66:22 *587:76 0
46 *157:10 *3084:S 4.11629e-05
47 *157:10 *587:76 0.000126149
48 *170:10 *587:39 0
49 *171:8 *587:39 0.000387448
50 *239:30 *587:39 8.00842e-05
51 *245:37 *587:116 0
52 *246:12 *587:18 0
53 *294:10 *587:24 0.000339977
54 *298:77 *587:116 0
55 *424:39 *3069:S 0.000388611
56 *424:39 *587:54 0.000443294
57 *425:14 *587:76 0
58 *425:22 *3069:S 0.000338555
59 *425:22 *587:54 0.000159836
60 *427:63 *3071:S 0
61 *428:32 *3071:S 0
62 *518:12 *3071:S 1.54008e-05
63 *579:44 *3069:S 0
64 *579:50 *587:39 8.00842e-05
65 *579:64 *587:18 1.53666e-05
66 *581:10 *587:94 0
67 *582:151 *587:88 0.000176396
68 *583:95 *587:80 0.000386247
69 *583:95 *587:116 0.000879187
*RES
1 *3496:X *587:18 29.9292 
2 *587:18 *587:24 41.5862 
3 *587:24 *3083:S 20 
4 *587:24 *587:39 43.6462 
5 *587:39 *3082:S 20 
6 *587:18 *587:54 26.5302 
7 *587:54 *3069:S 42.575 
8 *587:54 *587:65 20 
9 *587:65 *3070:S 20 
10 *587:65 *587:76 22.6471 
11 *587:76 *587:80 22.4823 
12 *587:80 *587:88 27.9413 
13 *587:88 *587:94 45.9431 
14 *587:94 *3140:S 40 
15 *587:88 *3129:S 40.3193 
16 *587:80 *587:116 31.049 
17 *587:116 *3071:S 42.6986 
18 *587:76 *3084:S 40.2755 
*END

*D_NET *588 0.0182473
*CONN
*I *3085:S I *D sg13g2_mux2_1
*I *3128:S I *D sg13g2_mux2_1
*I *3495:A I *D sg13g2_buf_1
*I *3496:A I *D sg13g2_buf_1
*I *3497:X O *D sg13g2_buf_1
*CAP
1 *3085:S 0
2 *3128:S 0
3 *3495:A 7.13682e-05
4 *3496:A 0.000665089
5 *3497:X 0.000208984
6 *588:65 0.000872333
7 *588:46 0.00128546
8 *588:38 0.00389508
9 *588:10 0.000791608
10 *588:8 0.00200143
11 *3496:A *612:84 0.000175693
12 *3496:A *618:10 0
13 *588:8 *618:10 0
14 *588:10 *618:10 0
15 *588:38 *618:18 0.0001447
16 *588:46 *595:83 0
17 *588:46 *616:10 0.0005536
18 *588:46 *616:105 0
19 *588:46 *618:63 0
20 *588:46 *676:12 0.000753825
21 uio_out[7] *588:46 0.000913099
22 *3085:A0 *588:65 0
23 *3235:CLK *588:65 0
24 *3309:CLK *3495:A 0.000112426
25 *3309:CLK *588:38 0.000209499
26 *3340:D *3496:A 0
27 *3591:A *3496:A 0
28 *25:44 *588:46 2.14736e-05
29 *63:8 *3495:A 4.77425e-05
30 *239:30 *588:38 0.00058786
31 *239:30 *588:65 0.000791489
32 *298:77 *588:65 0.000331205
33 *317:16 *588:65 4.77425e-05
34 *342:39 *588:38 0
35 *342:39 *588:65 0
36 *342:48 *588:38 0.000403894
37 *342:50 *588:38 0.000532663
38 *364:28 *588:46 0.000339316
39 *427:18 *588:46 0.000646526
40 *428:32 *588:65 0.000332608
41 *442:14 *588:38 0.000251257
42 *442:14 *588:65 0
43 *490:15 *588:46 0
44 *516:22 *588:46 0
45 *559:16 *588:46 0
46 *559:22 *588:8 0
47 *566:12 *3496:A 0.000144587
48 *579:32 *588:46 0
49 *586:102 *3496:A 0.000177583
50 *586:102 *588:10 0.000103389
51 *586:106 *3496:A 0.000753692
52 *587:39 *588:38 8.00842e-05
*RES
1 *3497:X *588:8 41.5862 
2 *588:8 *588:10 0.5974 
3 *588:10 *3496:A 46.7877 
4 *588:10 *3495:A 40.7519 
5 *588:8 *588:38 36.7787 
6 *588:38 *588:46 34.8011 
7 *588:46 *3128:S 40 
8 *588:38 *588:65 49.0331 
9 *588:65 *3085:S 20 
*END

*D_NET *589 0.0192281
*CONN
*I *3080:S I *D sg13g2_mux2_1
*I *3052:S I *D sg13g2_mux2_1
*I *3051:S I *D sg13g2_mux2_1
*I *3125:S I *D sg13g2_mux2_1
*I *3081:S I *D sg13g2_mux2_1
*I *3134:S I *D sg13g2_mux2_1
*I *3138:S I *D sg13g2_mux2_1
*I *3137:S I *D sg13g2_mux2_1
*I *3498:X O *D sg13g2_buf_1
*CAP
1 *3080:S 0.000207656
2 *3052:S 0.000371
3 *3051:S 3.46921e-05
4 *3125:S 0.000686813
5 *3081:S 0.000343289
6 *3134:S 0.000571315
7 *3138:S 3.04198e-05
8 *3137:S 6.08982e-05
9 *3498:X 5.86532e-05
10 *589:89 0.000586941
11 *589:72 0.00135352
12 *589:62 0.0011928
13 *589:27 0.000811258
14 *589:14 0.00102066
15 *589:12 0.00117762
16 *589:8 0.000642427
17 *3081:S *590:44 0
18 *3125:S *2979:A1 0
19 *3125:S *619:12 0
20 *3134:S *3299:RESET_B 0
21 *3134:S *590:61 0
22 *3137:S *3298:RESET_B 0
23 *3138:S *590:61 4.77425e-05
24 *589:8 *590:61 7.92265e-05
25 *589:14 *3298:RESET_B 0
26 *589:14 *590:61 0
27 *589:14 *621:22 0
28 *589:62 *641:89 0.00121031
29 *589:72 *3245:RESET_B 0
30 *3052:A0 *3052:S 0
31 *3080:A0 *3080:S 0
32 *3080:A0 *589:72 0
33 *3134:A0 *3134:S 0
34 *3137:A1 *3137:S 0
35 *3137:A1 *589:14 0
36 *3137:A1 *589:27 0
37 *3217:D *3052:S 0.000242025
38 *3290:D *3125:S 0
39 *3299:D *3134:S 0
40 *3303:D *589:14 0.000272718
41 *3351:CLK *589:72 0
42 *3628:clk2_phase_sel[0] *589:72 0
43 *3628:clk2_phase_sel[1] *3052:S 0
44 *3628:ext_trim[19] *3080:S 0.000112045
45 *225:8 *3134:S 0.000394151
46 *225:8 *589:27 0.000181279
47 *270:44 *589:12 0.000447686
48 *270:44 *589:62 0.00197859
49 *299:54 *589:72 0
50 *299:60 *3125:S 0
51 *324:32 *3134:S 0.000372055
52 *324:32 *589:27 0.00023464
53 *353:27 *3052:S 0.000607525
54 *353:27 *589:72 0.000128956
55 *353:27 *589:89 0.000980407
56 *371:25 *589:27 0
57 *374:18 *3137:S 0
58 *423:12 *589:72 0
59 *438:18 *589:72 0
60 *512:10 *589:27 0
61 *584:57 *589:12 0.000449137
62 *584:57 *589:62 0.0007729
63 *584:59 *3052:S 0.000586257
64 *584:59 *589:89 0.000980493
*RES
1 *3498:X *589:8 40.5356 
2 *589:8 *589:12 22.0806 
3 *589:12 *589:14 6.8083 
4 *589:14 *3137:S 20.6695 
5 *589:14 *589:27 22.3278 
6 *589:27 *3138:S 40.3193 
7 *589:27 *3134:S 46.6435 
8 *589:12 *3081:S 23.1312 
9 *589:8 *589:62 30.4339 
10 *589:62 *589:72 44.6712 
11 *589:72 *3125:S 26.2171 
12 *589:72 *589:89 24.5526 
13 *589:89 *3051:S 40.3193 
14 *589:89 *3052:S 45.6547 
15 *589:62 *3080:S 22.0497 
*END

*D_NET *590 0.026724
*CONN
*I *3497:A I *D sg13g2_buf_1
*I *3135:S I *D sg13g2_mux2_1
*I *3136:S I *D sg13g2_mux2_1
*I *3498:A I *D sg13g2_buf_1
*I *3499:X O *D sg13g2_buf_1
*CAP
1 *3497:A 0
2 *3135:S 0.000399722
3 *3136:S 5.82225e-05
4 *3498:A 0
5 *3499:X 6.56136e-05
6 *590:61 0.00273699
7 *590:44 0.00246746
8 *590:40 0.00170684
9 *590:36 0.00219328
10 *590:18 0.000958717
11 *590:16 0.00320505
12 *590:8 0.0029868
13 *590:16 *595:83 0
14 *590:16 *609:40 0
15 *590:16 *616:45 0
16 *590:16 *694:8 0.00123096
17 *590:44 *3246:RESET_B 0
18 uio_out[5] *590:16 0
19 uio_out[6] *590:16 0
20 uo_out[6] *590:36 0
21 *2959:A *590:8 0.00011174
22 *3067:A0 *590:36 0
23 *3067:S *590:40 0
24 *3081:S *590:44 0
25 *3134:A1 *590:61 0
26 *3134:S *590:61 0
27 *3136:A0 *3135:S 0.000668978
28 *3138:A1 *590:61 0
29 *3138:S *590:61 4.77425e-05
30 *3166:B *590:8 0.000111037
31 *3232:CLK *590:40 0.000320354
32 *3246:D *590:44 0
33 *3246:D *590:61 0
34 *3437:A *590:61 0
35 *3569:A *590:61 0.000241512
36 *3603:A *590:18 0.000356152
37 *3603:A *590:36 0.00024131
38 *3628:ext_trim[8] *590:16 0
39 *7:35 *590:36 0.000442886
40 *36:12 *590:36 0.000240377
41 *37:12 *590:40 0.000230741
42 *155:8 *590:40 0.000342449
43 *239:30 *590:16 0.00173021
44 *239:30 *590:18 0
45 *299:28 *590:36 0.000240377
46 *339:16 *590:40 0.000284051
47 *339:34 *590:40 0.00149142
48 *343:28 *590:16 0
49 *363:10 *590:61 0.000143351
50 *365:22 *590:16 0.0002802
51 *371:25 *590:61 0.000339096
52 *372:21 *3135:S 0
53 *372:21 *590:61 0
54 *374:18 *590:61 0
55 *385:72 *590:18 0
56 *385:78 *590:36 0.000176516
57 *424:8 *590:16 0
58 *424:8 *590:18 0
59 *424:31 *590:16 0
60 *436:36 *590:40 0
61 *436:38 *590:40 0
62 *438:18 *590:40 0.000182109
63 *439:18 *590:40 0
64 *439:30 *590:16 4.77699e-05
65 *440:12 *590:16 0
66 *490:15 *590:16 0
67 *492:31 *590:16 0
68 *541:8 *590:61 0.00034245
69 *566:20 *590:36 0
70 *576:8 *590:36 2.22695e-05
71 *582:151 *590:16 0
72 *586:35 *590:40 0
73 *587:88 *590:16 0
74 *589:8 *590:61 7.92265e-05
75 *589:14 *590:61 0
*RES
1 *3499:X *590:8 40.7519 
2 *590:8 *590:16 47.3465 
3 *590:16 *590:18 3.1312 
4 *590:18 *590:36 47.5808 
5 *590:36 *590:40 37.9014 
6 *590:40 *590:44 21.8334 
7 *590:44 *3498:A 20 
8 *590:44 *590:61 43.2265 
9 *590:61 *3136:S 40.5356 
10 *590:61 *3135:S 44.3466 
11 *590:18 *3497:A 20 
*END

*D_NET *591 0.0113911
*CONN
*I *3063:S I *D sg13g2_mux2_1
*I *3062:S I *D sg13g2_mux2_1
*I *3076:S I *D sg13g2_mux2_1
*I *3065:S I *D sg13g2_mux2_1
*I *3064:S I *D sg13g2_mux2_1
*I *3077:S I *D sg13g2_mux2_1
*I *3066:S I *D sg13g2_mux2_1
*I *3079:S I *D sg13g2_mux2_1
*I *3500:X O *D sg13g2_buf_1
*CAP
1 *3063:S 8.51376e-05
2 *3062:S 0.00028221
3 *3076:S 0
4 *3065:S 9.19104e-05
5 *3064:S 0
6 *3077:S 7.1942e-05
7 *3066:S 0
8 *3079:S 0
9 *3500:X 9.10992e-05
10 *591:97 0.000685619
11 *591:89 0.00061568
12 *591:62 0.000862124
13 *591:45 0.00088192
14 *591:41 0.0002862
15 *591:31 0.000436379
16 *591:27 0.000512705
17 *591:23 0.000372793
18 *591:16 9.72033e-05
19 *591:12 0.000121519
20 *3065:S *627:28 0.000124824
21 *3077:S *625:12 0
22 *591:27 *627:28 0.000443946
23 *591:41 *592:39 0.000335332
24 *591:45 *592:39 0.000232563
25 *591:62 *592:39 0.000577393
26 *591:62 *617:12 0.000365689
27 *591:62 *630:37 7.30101e-05
28 *591:62 *641:20 0
29 *3063:A0 *591:97 0.000209108
30 *3065:A0 *591:41 1.53556e-05
31 *3152:A *3065:S 0.000112426
32 *3152:B *3065:S 0.000112426
33 *3152:B *591:31 0.000369743
34 *3152:B *591:41 8.00842e-05
35 *18:19 *591:62 0.000497981
36 *150:14 *591:12 6.99179e-05
37 *151:8 *591:97 0.000600813
38 *153:10 *591:12 0.00012651
39 *154:12 *591:41 0.000336935
40 *167:8 *3065:S 0.000104166
41 *167:8 *591:27 7.49633e-05
42 *290:43 *591:62 0
43 *310:28 *591:16 4.77425e-05
44 *310:28 *591:23 9.6835e-05
45 *310:28 *591:89 6.38242e-05
46 *319:81 *591:45 0
47 *319:81 *591:62 0
48 *320:33 *3077:S 0.000112008
49 *344:91 *591:27 0
50 *352:22 *591:12 0.000126354
51 *418:37 *591:97 0.000233913
52 *419:40 *3063:S 0
53 *432:45 *3062:S 1.54008e-05
54 *432:45 *591:97 0.000337402
55 *527:10 *3063:S 0
*RES
1 *3500:X *591:12 41.2669 
2 *591:12 *591:16 20.3193 
3 *591:16 *3079:S 20 
4 *591:16 *591:23 0.7519 
5 *591:23 *591:27 22.0806 
6 *591:27 *591:31 22.4823 
7 *591:31 *591:41 42.6574 
8 *591:41 *591:45 21.0918 
9 *591:45 *3066:S 40 
10 *591:45 *591:62 47.7559 
11 *591:62 *3077:S 40.7519 
12 *591:31 *3064:S 20 
13 *591:27 *3065:S 41.3493 
14 *591:23 *591:89 1.1845 
15 *591:89 *591:97 45.0882 
16 *591:97 *3076:S 20 
17 *591:97 *3062:S 22.6162 
18 *591:89 *3063:S 20.789 
*END

*D_NET *592 0.045324
*CONN
*I *3013:B I *D sg13g2_nor3_1
*I *3060:S I *D sg13g2_mux2_1
*I *3075:S I *D sg13g2_mux2_1
*I *3074:S I *D sg13g2_mux2_1
*I *3073:S I *D sg13g2_mux2_1
*I *3072:S I *D sg13g2_mux2_1
*I *3061:S I *D sg13g2_mux2_1
*I *3078:S I *D sg13g2_mux2_1
*I *3501:X O *D sg13g2_buf_1
*CAP
1 *3013:B 0.000108586
2 *3060:S 0
3 *3075:S 0
4 *3074:S 0.000563202
5 *3073:S 2.9025e-05
6 *3072:S 0.000994701
7 *3061:S 6.26152e-05
8 *3078:S 0
9 *3501:X 0
10 *592:151 0.00127282
11 *592:140 0.00075132
12 *592:127 0
13 *592:90 0.00109258
14 *592:86 0.00133791
15 *592:78 0.00231781
16 *592:72 0.00176532
17 *592:66 0.00058869
18 *592:56 0.000754597
19 *592:54 0.0018552
20 *592:52 0.00194883
21 *592:39 0.00293323
22 *592:29 0.00289247
23 *592:20 0.000633987
24 *592:4 0.00065584
25 *3013:B *3554:A 0
26 *3072:S *610:62 0
27 *3074:S *624:78 0
28 *592:20 *625:12 0.000111568
29 *592:20 *629:12 0.000384846
30 *592:20 *639:14 0
31 *592:20 *692:69 0.000143351
32 *592:29 *625:12 3.23417e-05
33 *592:29 *692:69 4.77425e-05
34 *592:39 *3011:A 0.00023375
35 *592:39 *600:39 0.00012785
36 *592:39 *600:47 0.000600078
37 *592:39 *701:10 0
38 *592:39 *701:69 0.00277305
39 *592:39 *703:56 0.000177736
40 *592:39 *708:18 0
41 *592:39 *708:33 0
42 *592:54 *692:16 0
43 *592:54 *692:33 0
44 *592:56 *692:16 0
45 *592:78 *624:130 0
46 *592:78 *692:16 0.000603215
47 *592:86 *697:28 0
48 *592:140 *625:132 0
49 *592:140 *666:16 0
50 *592:151 *668:27 0.000447598
51 *3011:B *592:39 0.00166965
52 *3071:S *3072:S 0
53 *3073:A1 *3074:S 0
54 *3074:A0 *3074:S 0
55 *3242:CLK *592:20 0
56 *3360:CLK *592:39 0.000709916
57 *3487:A *3061:S 4.77425e-05
58 *54:24 *592:54 0
59 *54:24 *592:56 0
60 *54:24 *592:66 0
61 *68:23 *592:78 0
62 *68:39 *592:66 0
63 *70:16 *592:78 0.00067356
64 *91:8 *592:86 0
65 *95:10 *592:151 0.000342145
66 *106:12 *3013:B 1.54008e-05
67 *148:12 *592:140 0
68 *154:12 *592:39 0
69 *235:28 *592:20 0.000171036
70 *239:20 *3072:S 0.000304584
71 *242:18 *3074:S 0
72 *246:43 *592:56 0.000476058
73 *246:43 *592:66 0.000146755
74 *249:8 *592:86 7.93707e-05
75 *256:85 *592:39 0.00049361
76 *259:36 *592:151 0
77 *263:28 *592:39 0
78 *263:30 *592:39 0.00212093
79 *266:18 *3013:B 8.01116e-05
80 *266:18 *592:151 0.000393218
81 *271:12 *3072:S 0.00117981
82 *271:12 *592:86 0.000919559
83 *271:12 *592:90 9.67976e-05
84 *272:20 *592:20 0
85 *287:27 *592:86 0
86 *319:14 *592:39 0.000791161
87 *319:81 *592:20 0
88 *319:81 *592:39 0
89 *346:75 *592:20 0
90 *348:10 *3061:S 0
91 *348:74 *592:39 0.00240551
92 *351:20 *3074:S 0.000176741
93 *414:60 *592:140 0
94 *416:43 *592:140 0.000346162
95 *416:70 *3061:S 7.3287e-05
96 *416:70 *592:39 0.000105299
97 *419:40 *592:39 0.000339413
98 *420:14 *592:20 0.000855434
99 *429:20 *3072:S 0.000143481
100 *431:56 *592:66 0.00014373
101 *436:71 *592:39 0.000233463
102 *518:12 *3072:S 1.98648e-05
103 *523:20 *592:78 7.30101e-05
104 *527:26 *592:39 0.000229843
105 *528:10 *592:140 8.01915e-05
106 *533:40 *592:66 0
107 *544:24 *3061:S 0
108 *544:24 *592:39 0
109 *544:46 *592:140 0
110 *583:8 *592:20 0
111 *583:60 *592:66 0
112 *591:41 *592:39 0.000335332
113 *591:45 *592:39 0.000232563
114 *591:62 *592:39 0.000577393
*RES
1 *3501:X *592:4 20 
2 *592:4 *592:20 47.2924 
3 *592:20 *3078:S 20 
4 *592:4 *592:29 20.3193 
5 *592:29 *592:39 44.9492 
6 *592:39 *3061:S 40.6695 
7 *592:39 *592:52 20 
8 *592:52 *592:54 7.0246 
9 *592:54 *592:56 3.3475 
10 *592:56 *592:66 43.8007 
11 *592:66 *592:72 41.0918 
12 *592:72 *592:78 35.5942 
13 *592:78 *592:86 46.7568 
14 *592:86 *592:90 20.7519 
15 *592:90 *3072:S 30.7532 
16 *592:90 *3073:S 20.3502 
17 *592:86 *3074:S 45.2427 
18 *592:56 *592:127 40 
19 *592:127 *3075:S 20 
20 *592:54 *592:140 46.2933 
21 *592:140 *3060:S 20 
22 *592:52 *592:151 31.6699 
23 *592:151 *3013:B 40.9682 
*END

*D_NET *593 0.0122631
*CONN
*I *3049:S I *D sg13g2_mux2_1
*I *3048:S I *D sg13g2_mux2_1
*I *3050:S I *D sg13g2_mux2_1
*I *3047:S I *D sg13g2_mux2_1
*I *3046:S I *D sg13g2_mux2_1
*I *3122:S I *D sg13g2_mux2_1
*I *3121:S I *D sg13g2_mux2_1
*I *3120:S I *D sg13g2_mux2_1
*I *3502:X O *D sg13g2_buf_1
*CAP
1 *3049:S 0.000233397
2 *3048:S 4.61434e-05
3 *3050:S 0.000740906
4 *3047:S 0
5 *3046:S 0.000509772
6 *3122:S 0.000551672
7 *3121:S 0.000159828
8 *3120:S 0.000158487
9 *3502:X 9.95784e-05
10 *593:71 0.000810456
11 *593:69 0.000460866
12 *593:58 0.000361578
13 *593:47 0.00144911
14 *593:34 0.00153817
15 *593:19 0.000546329
16 *593:8 0.000439891
17 *3050:S *3215:RESET_B 0
18 *3050:S *637:16 0
19 *3050:S *656:10 0.000395488
20 *593:69 *656:10 0.00028775
21 *593:71 *656:10 0.000127744
22 *3046:A1 *3046:S 0
23 *3050:A1 *3050:S 0
24 *3120:A0 *3120:S 0
25 *3120:A0 *3121:S 0
26 *3122:A1 *3122:S 0
27 *3624:D *3122:S 0
28 *3624:D *593:34 0
29 *3628:clk1_phase_sel[2] *3049:S 0.000322325
30 *3628:f_clk1_divider[4] *3050:S 0.000497566
31 *327:61 *3120:S 0.000241167
32 *329:24 *3050:S 8.00842e-05
33 *329:44 *593:34 0
34 *329:50 *593:8 0
35 *329:50 *593:19 0
36 *358:8 *593:47 0
37 *358:16 *3121:S 0.000208825
38 *358:56 *3122:S 0
39 *359:19 *3122:S 0
40 *359:27 *593:47 0
41 *360:12 *3122:S 0
42 *360:40 *3122:S 0
43 *400:23 *3046:S 0
44 *400:23 *593:58 0
45 *400:23 *593:69 0
46 *400:38 *593:69 0
47 *401:16 *3049:S 8.00842e-05
48 *401:16 *593:47 0
49 *401:16 *593:58 0
50 *401:16 *593:69 0
51 *405:14 *3050:S 0
52 *480:12 *3050:S 0.000398506
53 *480:12 *593:69 0.000266617
54 *480:12 *593:71 0.000107421
55 *536:10 *593:47 0
56 *536:18 *593:8 0.000288377
57 *536:18 *593:19 0.00053589
58 *536:18 *593:34 0.00031912
59 *536:18 *593:47 0
*RES
1 *3502:X *593:8 41.339 
2 *593:8 *3120:S 41.6171 
3 *593:8 *593:19 2.575 
4 *593:19 *3121:S 41.6171 
5 *593:19 *593:34 22.3381 
6 *593:34 *3122:S 24.8616 
7 *593:34 *593:47 47.2718 
8 *593:47 *3046:S 25.2118 
9 *593:47 *593:58 1.4008 
10 *593:58 *3047:S 20 
11 *593:58 *593:69 22.7398 
12 *593:69 *593:71 0.5974 
13 *593:71 *3050:S 48.4254 
14 *593:71 *3048:S 40.5356 
15 *593:69 *3049:S 42.6986 
*END

*D_NET *594 0.0187948
*CONN
*I *3053:S I *D sg13g2_mux2_1
*I *3054:S I *D sg13g2_mux2_1
*I *3033:S I *D sg13g2_mux2_1
*I *3502:A I *D sg13g2_buf_1
*I *3123:S I *D sg13g2_mux2_1
*I *3124:S I *D sg13g2_mux2_1
*I *3503:X O *D sg13g2_buf_1
*CAP
1 *3053:S 0.000379603
2 *3054:S 0
3 *3033:S 0
4 *3502:A 0.000260918
5 *3123:S 0.000557015
6 *3124:S 0.000565847
7 *3503:X 0.000104851
8 *594:63 0.00174484
9 *594:48 0.00212972
10 *594:33 0.000908937
11 *594:18 0.000993815
12 *594:14 0.00055721
13 *594:6 0.000841654
14 *3053:S *3503:A 0
15 *3123:S *2989:A1 4.77699e-05
16 *3124:S *633:34 0
17 *3124:S *633:38 0
18 *3502:A *3285:RESET_B 0
19 *594:14 *637:10 0.0012018
20 *594:33 *3219:RESET_B 0.000501874
21 *594:33 *633:30 0.000341949
22 *594:48 *654:10 0.000607938
23 *594:63 *634:62 0
24 *594:63 *653:22 0
25 *594:63 *653:26 0
26 *594:63 *654:10 0.000853077
27 *2989:A2 *3123:S 0
28 *3124:A0 *3124:S 0
29 *3124:A1 *3124:S 0
30 *3163:B *3123:S 0
31 *3198:D *594:63 0.000241908
32 *3218:D *3053:S 0
33 *3218:CLK *3124:S 0
34 *3218:CLK *594:18 0
35 *3285:D *3502:A 0
36 *3348:CLK *3124:S 0
37 *3349:CLK *3123:S 0
38 *3622:SEL *3502:A 0
39 *3628:clk0_phase_sel[0] *594:63 0
40 *3628:clk1_phase_sel[0] *594:63 0
41 *56:12 *3124:S 0
42 *327:22 *594:33 0
43 *329:16 *594:63 0
44 *329:50 *3502:A 0
45 *361:10 *3123:S 8.01995e-05
46 *402:8 *594:63 0.000660642
47 *405:16 *594:33 0.00108896
48 *405:16 *594:48 0.00066097
49 *405:16 *594:63 0.00226156
50 *407:10 *3053:S 0
51 *409:12 *594:63 0
52 *512:8 *3123:S 0
53 *512:8 *3502:A 0
54 *536:18 *3123:S 0
55 *584:59 *594:14 0.0012018
*RES
1 *3503:X *594:6 20.7519 
2 *594:6 *594:14 46.7259 
3 *594:14 *594:18 1.9673 
4 *594:18 *3124:S 24.1233 
5 *594:18 *594:33 25.047 
6 *594:33 *3123:S 45.3457 
7 *594:33 *594:48 3.0694 
8 *594:48 *3502:A 42.6986 
9 *594:48 *594:63 39.6463 
10 *594:63 *3033:S 20 
11 *594:14 *3054:S 20 
12 *594:6 *3053:S 23.5123 
*END

*D_NET *595 0.0414558
*CONN
*I *2945:B I *D sg13g2_and2_1
*I *2990:B_N I *D sg13g2_nor2b_1
*I *2988:B I *D sg13g2_nor2_1
*I *2989:S0 I *D sg13g2_mux4_1
*I *3590:X O *D sg13g2_buf_1
*CAP
1 *2945:B 0.000289922
2 *2990:B_N 3.98973e-05
3 *2988:B 0
4 *2989:S0 2.60565e-05
5 *3590:X 0
6 *595:91 0.000593241
7 *595:83 0.00272671
8 *595:73 0.00308353
9 *595:63 0.00166582
10 *595:41 0.000258502
11 *595:31 0.000736167
12 *595:18 0.00328501
13 *595:12 0.00416211
14 *595:4 0.00234661
15 *2945:B *606:48 0
16 *2989:S0 *3219:RESET_B 4.77425e-05
17 *595:12 *612:97 0.000112453
18 *595:12 *663:10 0.000603363
19 *595:18 *619:64 0.000823405
20 *595:18 *622:52 0
21 *595:18 *634:18 0.000394566
22 *595:18 *634:31 0.00119378
23 *595:31 *634:31 0.00111874
24 *595:41 *634:54 0
25 *595:41 *637:10 0.000182121
26 *595:63 *612:97 9.5609e-05
27 *595:63 *618:24 0
28 *595:91 *600:81 0.000441935
29 *595:91 *609:30 0.000124547
30 *595:91 *609:40 0
31 uio_out[6] *595:83 0.00103241
32 *2959:A *595:83 0
33 *2989:A0 *2989:S0 4.77425e-05
34 *3083:A1 *595:73 0
35 *3083:A1 *595:83 0.000759305
36 *3126:S *595:12 0.000295857
37 *3163:B *595:18 0.000319022
38 *3166:B *2945:B 0.000467497
39 *3293:D *2945:B 0.000209641
40 *3622:D *2990:B_N 0
41 *3622:D *595:41 0
42 *12:13 *595:63 0
43 *29:32 *595:83 0.000126047
44 *47:10 *595:12 0
45 *64:8 *595:83 0.000126851
46 *172:10 *595:83 0.00028467
47 *216:8 *595:91 0.000124547
48 *251:12 *595:41 0.0001122
49 *279:8 *595:12 0.00129512
50 *294:10 *595:73 0.000176396
51 *294:26 *595:12 0
52 *294:41 *595:18 0.00188959
53 *317:16 *595:73 0
54 *317:16 *595:83 0
55 *353:8 *595:18 0.000663045
56 *353:52 *595:18 0.000821312
57 *362:24 *595:12 0
58 *362:24 *595:18 0.0026869
59 *363:10 *595:18 0
60 *363:18 *595:12 0
61 *363:18 *595:18 0
62 *376:10 *595:18 0
63 *376:12 *595:18 0
64 *405:16 *595:18 0
65 *405:26 *595:18 0.000821726
66 *409:6 *595:41 0.00011101
67 *409:12 *595:41 0.000112541
68 *409:25 *595:31 0
69 *424:20 *595:73 0.000403597
70 *494:6 *595:83 0
71 *494:15 *595:83 0
72 *548:8 *595:18 0.00119826
73 *559:16 *595:83 0
74 *574:8 *595:12 0
75 *574:8 *595:18 0
76 *574:8 *595:31 0
77 *579:50 *595:73 0
78 *579:50 *595:83 0
79 *580:32 *595:63 0
80 *581:10 *595:91 0.000508928
81 *582:39 *595:12 0
82 *584:51 *595:12 0.000182023
83 *584:72 *595:41 7.51285e-05
84 *584:84 *595:41 7.87725e-05
85 *586:61 *595:12 0.00204821
86 *586:106 *595:73 0.00012559
87 *588:46 *595:83 0
88 *590:16 *595:83 0
*RES
1 *3590:X *595:4 20 
2 *595:4 *595:12 38.7254 
3 *595:12 *595:18 41.5605 
4 *595:18 *2989:S0 40.3193 
5 *595:18 *595:31 25.2942 
6 *595:31 *595:41 42.9973 
7 *595:41 *2988:B 20 
8 *595:31 *2990:B_N 20.5923 
9 *595:4 *595:63 48.4254 
10 *595:63 *595:73 46.489 
11 *595:73 *595:83 42.1347 
12 *595:83 *595:91 43.9449 
13 *595:91 *2945:B 43.1312 
*END

*D_NET *596 0.0120679
*CONN
*I *3034:S I *D sg13g2_mux2_1
*I *3044:S I *D sg13g2_mux2_1
*I *3057:S I *D sg13g2_mux2_1
*I *3055:S I *D sg13g2_mux2_1
*I *3042:S I *D sg13g2_mux2_1
*I *3043:S I *D sg13g2_mux2_1
*I *3045:S I *D sg13g2_mux2_1
*I *3041:S I *D sg13g2_mux2_1
*I *3504:X O *D sg13g2_buf_1
*CAP
1 *3034:S 0
2 *3044:S 0.000759279
3 *3057:S 2.68585e-05
4 *3055:S 0
5 *3042:S 0
6 *3043:S 0
7 *3045:S 3.46921e-05
8 *3041:S 0
9 *3504:X 0.000426017
10 *596:72 0.000223532
11 *596:64 0.000720867
12 *596:56 0.00130606
13 *596:47 0.000238772
14 *596:38 0.000252575
15 *596:23 0.000864331
16 *596:21 0.000767255
17 *596:14 0.000485946
18 *596:10 0.000884237
19 *3044:S *3208:RESET_B 0
20 *3044:S *636:61 0
21 *596:10 *636:8 0
22 *596:14 *636:18 0
23 *596:14 *636:26 0
24 *596:23 *3210:RESET_B 0
25 *596:23 *636:26 0.000232709
26 *3034:A0 *596:10 0.00030513
27 *3042:A1 *596:64 1.54008e-05
28 *3045:A0 *596:23 0
29 *3199:CLK *596:64 0
30 *3206:D *596:14 0.000240519
31 *3206:D *596:23 0
32 *3208:CLK *3044:S 0
33 *3210:D *596:23 0.000242071
34 *3628:bias *596:72 4.77425e-05
35 *3628:clk0_phase_sel[2] *596:64 0
36 *133:8 *596:38 0
37 *282:19 *3057:S 4.77425e-05
38 *282:19 *596:64 8.00842e-05
39 *325:16 *596:38 0
40 *327:16 *3044:S 0
41 *329:10 *596:72 0.000554077
42 *330:22 *596:64 0
43 *330:57 *596:14 0
44 *386:19 *596:10 0
45 *394:18 *3044:S 0.000851002
46 *394:18 *596:47 0.000447685
47 *394:18 *596:56 0.000265488
48 *395:26 *596:64 0.000145153
49 *395:39 *596:47 0.000394653
50 *395:39 *596:56 0.000181608
51 *397:20 *596:38 0.000289002
52 *399:10 *596:38 0.000502704
53 *399:14 *596:38 0.000234727
54 *401:10 *596:23 0
55 *409:12 *596:72 0
*RES
1 *3504:X *596:10 24.2951 
2 *596:10 *596:14 4.3466 
3 *596:14 *3041:S 20 
4 *596:14 *596:21 0.3502 
5 *596:21 *596:23 5.9431 
6 *596:23 *3045:S 20.3193 
7 *596:23 *596:38 43.6359 
8 *596:38 *3043:S 20 
9 *596:21 *596:47 22.575 
10 *596:47 *3042:S 40 
11 *596:47 *596:56 1.339 
12 *596:56 *596:64 24.2333 
13 *596:64 *596:72 42.8943 
14 *596:72 *3055:S 20 
15 *596:64 *3057:S 20.3193 
16 *596:56 *3044:S 48.0546 
17 *596:10 *3034:S 20 
*END

*D_NET *597 0.0113141
*CONN
*I *3056:S I *D sg13g2_mux2_1
*I *3035:S I *D sg13g2_mux2_1
*I *3036:S I *D sg13g2_mux2_1
*I *3040:S I *D sg13g2_mux2_1
*I *3117:S I *D sg13g2_mux2_1
*I *3118:S I *D sg13g2_mux2_1
*I *3119:S I *D sg13g2_mux2_1
*I *3058:S I *D sg13g2_mux2_1
*I *3505:X O *D sg13g2_buf_1
*CAP
1 *3056:S 0
2 *3035:S 0
3 *3036:S 0.000513797
4 *3040:S 0
5 *3117:S 0
6 *3118:S 0.000427248
7 *3119:S 0
8 *3058:S 2.77291e-05
9 *3505:X 0
10 *597:84 0.00052448
11 *597:78 0.000663226
12 *597:54 0.000843122
13 *597:43 0.000419045
14 *597:32 0.000757471
15 *597:23 0.000543087
16 *597:8 0.00109127
17 *597:4 0.000899697
18 *3036:S *637:76 0
19 *3118:S *635:66 0
20 *597:8 *636:76 0
21 *597:84 *599:75 0.0013567
22 *3040:A0 *3036:S 0
23 *3118:A0 *3118:S 0
24 *3119:A0 *3118:S 0
25 *3208:CLK *3058:S 0
26 *3208:CLK *597:8 0
27 *3282:D *3118:S 0
28 *3284:CLK *3118:S 0
29 *3628:f_clk2_divider[4] *3036:S 4.47065e-05
30 *3628:mode_xor[0] *597:78 0
31 *282:36 *597:84 0
32 *327:16 *597:23 0.000181608
33 *327:16 *597:32 0
34 *327:16 *597:43 0
35 *327:16 *597:54 0
36 *337:30 *597:8 0.000499695
37 *337:39 *3036:S 0.000369859
38 *394:18 *597:23 0.00055508
39 *394:18 *597:32 0.00058534
40 *394:18 *597:43 0.00021346
41 *394:18 *597:54 0.000797467
42 *410:23 *597:8 0
43 *410:23 *597:78 0
*RES
1 *3505:X *597:4 20 
2 *597:4 *597:8 7.3748 
3 *597:8 *3058:S 20.3193 
4 *597:8 *597:23 23.7389 
5 *597:23 *3119:S 40 
6 *597:23 *597:32 2.8222 
7 *597:32 *3118:S 43.9964 
8 *597:32 *597:43 1.0918 
9 *597:43 *3117:S 40 
10 *597:43 *597:54 23.811 
11 *597:54 *3040:S 20 
12 *597:54 *3036:S 25.4152 
13 *597:4 *597:78 1.5965 
14 *597:78 *597:84 46.283 
15 *597:84 *3035:S 20 
16 *597:78 *3056:S 20 
*END

*D_NET *598 0.0215111
*CONN
*I *3031:S I *D sg13g2_mux2_1
*I *3028:S I *D sg13g2_mux2_1
*I *3025:S I *D sg13g2_mux2_1
*I *3032:S I *D sg13g2_mux2_1
*I *3024:S I *D sg13g2_mux2_1
*I *3023:S I *D sg13g2_mux2_1
*I *3022:S I *D sg13g2_mux2_1
*I *3021:S I *D sg13g2_mux2_1
*I *3506:X O *D sg13g2_buf_1
*CAP
1 *3031:S 0
2 *3028:S 0
3 *3025:S 0.00042549
4 *3032:S 0
5 *3024:S 0.000452616
6 *3023:S 0.000157353
7 *3022:S 0
8 *3021:S 8.49838e-05
9 *3506:X 4.34654e-05
10 *598:116 0.00127523
11 *598:101 0.00175876
12 *598:97 0.00161506
13 *598:86 0.00167676
14 *598:82 0.00130509
15 *598:70 0.00129763
16 *598:57 0.00104454
17 *598:44 0.000897424
18 *598:33 0.000602767
19 *598:25 0.000629518
20 *598:6 0.000415629
21 *3021:S *3555:A 0
22 *598:6 *3555:A 0
23 *598:25 *3555:A 0
24 *598:25 *599:36 0.000176393
25 *598:25 *641:112 1.54008e-05
26 *598:25 *641:118 0.000160849
27 *598:44 *641:118 0.000555736
28 *598:57 *641:118 0.00165196
29 *598:70 *641:118 0
30 *598:97 *3544:A 0
31 *598:97 *641:130 0.000716578
32 *3021:A0 *3021:S 0
33 *3021:A1 *598:25 0.000181192
34 *3024:A0 *598:82 0.000402167
35 *3024:A1 *3024:S 0
36 *3029:A0 *598:116 0.00018261
37 *3031:A0 *598:82 1.51e-05
38 *3032:A0 *598:82 0
39 *3358:D *3021:S 0
40 *3358:D *598:6 0
41 *3628:f_osc_multiply_factor[0] *598:25 0.000212127
42 *112:14 *598:82 0
43 *290:13 *598:97 0
44 *290:13 *598:116 0
45 *290:41 *598:25 0
46 *290:41 *598:33 0
47 *290:43 *598:25 0
48 *290:59 *3021:S 0
49 *290:59 *598:25 0
50 *320:53 *598:82 0.000561831
51 *320:68 *598:82 0
52 *320:68 *598:97 0
53 *322:10 *598:44 0.000555736
54 *322:10 *598:57 0.000927462
55 *323:6 *3024:S 0
56 *356:47 *598:25 0.000234224
57 *378:10 *598:82 0
58 *385:22 *598:82 7.52158e-05
59 *385:22 *598:86 0.000176279
60 *385:22 *598:97 3.24294e-05
61 *393:28 *3023:S 0.000112198
62 *415:12 *598:82 0.00014393
63 *426:16 *598:82 0.000452116
64 *426:28 *598:57 0
65 *426:28 *598:70 0.00012816
66 *426:55 *3025:S 0
67 *426:55 *598:82 0.000159096
68 *426:55 *598:97 0
69 *426:55 *598:116 0
70 *481:27 *598:116 0
71 *481:33 *598:116 0
72 *499:17 *598:33 0
73 *500:15 *598:97 0
*RES
1 *3506:X *598:6 20.5974 
2 *598:6 *3021:S 20.8858 
3 *598:6 *598:25 43.8007 
4 *598:25 *598:33 42.6471 
5 *598:33 *3022:S 20 
6 *598:33 *598:44 24.1921 
7 *598:44 *3023:S 41.6171 
8 *598:44 *598:57 8.0855 
9 *598:57 *3024:S 43.9964 
10 *598:57 *598:70 21.0918 
11 *598:70 *598:82 32.6587 
12 *598:82 *598:86 21.1845 
13 *598:86 *3032:S 20 
14 *598:86 *598:97 36.4903 
15 *598:97 *598:101 20.5356 
16 *598:101 *3025:S 23.7801 
17 *598:101 *598:116 34.3685 
18 *598:116 *3028:S 40 
19 *598:70 *3031:S 20 
*END

*D_NET *599 0.0803346
*CONN
*I *3506:A I *D sg13g2_buf_1
*I *3030:S I *D sg13g2_mux2_1
*I *3029:S I *D sg13g2_mux2_1
*I *3505:A I *D sg13g2_buf_1
*I *3504:A I *D sg13g2_buf_1
*I *3503:A I *D sg13g2_buf_1
*I *3059:S I *D sg13g2_mux2_1
*I *3507:X O *D sg13g2_buf_1
*CAP
1 *3506:A 0
2 *3030:S 0
3 *3029:S 0.00023872
4 *3505:A 0
5 *3504:A 0
6 *3503:A 0.000459457
7 *3059:S 3.73836e-05
8 *3507:X 9.08009e-05
9 *599:124 0.000268819
10 *599:81 0.00346705
11 *599:77 0.003957
12 *599:75 0.00667266
13 *599:73 0.00572325
14 *599:71 0.00524644
15 *599:69 0.00524644
16 *599:67 0.00343355
17 *599:65 0.00354512
18 *599:61 0.0013927
19 *599:48 0.00136625
20 *599:42 0.000680506
21 *599:36 0.00219869
22 *599:12 0.0021624
23 *599:8 0.000179739
24 *3503:A *637:10 0
25 *599:8 *647:33 0
26 *599:12 *3507:A 8.00842e-05
27 *599:36 *638:99 0
28 *599:36 *641:112 0.000128248
29 *599:42 *638:99 0.000555408
30 *599:48 *638:99 0
31 *599:61 *638:99 0
32 *599:71 *646:49 0
33 *599:75 *605:75 0
34 *599:75 *605:77 0
35 *599:81 *634:8 0
36 *599:81 *636:105 0
37 *599:81 *651:15 0
38 *599:81 *652:33 0
39 *599:124 *3555:A 0.00024131
40 *599:124 *600:24 0.000607524
41 *3025:A1 *599:61 0.00124889
42 *3025:A1 *599:67 0
43 *3029:A1 *3029:S 0
44 *3032:A0 *599:36 0
45 *3050:A0 *599:81 0.000395488
46 *3053:S *3503:A 0
47 *3194:D *3029:S 0
48 *3194:D *599:65 0
49 *3197:CLK *599:36 0.00146506
50 *3358:D *599:36 0.000240404
51 *3628:f_clk1_divider[3] *599:81 0
52 *3628:f_osc_multiply_factor[0] *599:124 0.000181192
53 *3628:f_osc_multiply_factor[1] *599:36 0.00012816
54 *7:47 *599:81 0
55 *109:10 *599:36 0.000218566
56 *111:10 *599:36 0.000287256
57 *115:10 *599:67 0.000235141
58 *120:10 *599:36 0.000662302
59 *123:8 *599:75 0
60 *126:8 *599:75 0
61 *250:23 *599:81 0
62 *251:12 *599:81 0
63 *251:23 *599:81 0
64 *282:36 *599:75 0
65 *282:36 *599:77 0
66 *290:59 *599:12 0
67 *320:14 *599:36 0
68 *320:81 *599:61 0.000769196
69 *321:46 *599:36 0.00130194
70 *322:10 *599:8 0
71 *323:10 *599:36 0.00201568
72 *326:10 *599:75 0
73 *326:10 *599:77 0
74 *326:10 *599:81 0
75 *332:34 *599:67 0
76 *332:48 *3029:S 0
77 *332:48 *599:65 0
78 *337:12 *599:75 0
79 *356:47 *599:124 0.000449137
80 *367:8 *599:48 0
81 *367:8 *599:61 0
82 *367:16 *599:48 0.000235556
83 *378:10 *599:36 0.00136067
84 *385:10 *599:36 0
85 *385:10 *599:42 0
86 *385:34 *599:36 0
87 *385:86 *599:81 0
88 *385:94 *599:81 0.00161736
89 *386:19 *599:77 0
90 *386:19 *599:81 0
91 *388:21 *599:75 0.00119502
92 *389:8 *599:75 0
93 *389:12 *599:75 0
94 *390:12 *599:75 0.000319437
95 *390:18 *599:75 0.00130482
96 *403:23 *599:81 0.000178042
97 *404:25 *599:36 0.000447685
98 *407:10 *599:81 0.000106392
99 *407:16 *599:81 0.000181781
100 *408:10 *599:81 0
101 *408:14 *599:81 0
102 *411:10 *599:75 0
103 *411:14 *599:75 0
104 *411:14 *599:77 0
105 *413:49 *599:67 0.0123661
106 *414:8 *599:61 0.0016226
107 *415:12 *599:36 0
108 *415:20 *599:36 0.000288087
109 *426:55 *599:42 0
110 *437:21 *599:67 0
111 *481:33 *599:61 0
112 *499:17 *599:36 0
113 *500:21 *599:48 0
114 *597:84 *599:75 0.0013567
115 *598:25 *599:36 0.000176393
*RES
1 *3507:X *599:8 40.8446 
2 *599:8 *599:12 20.9682 
3 *599:12 *599:36 49.4992 
4 *599:36 *599:42 24.3466 
5 *599:42 *599:48 22.8943 
6 *599:48 *3059:S 40.3193 
7 *599:48 *599:61 34.6878 
8 *599:61 *599:65 20.9682 
9 *599:65 *599:67 57.2062 
10 *599:67 *599:69 20 
11 *599:69 *599:71 67.156 
12 *599:71 *599:73 20 
13 *599:73 *599:75 63.3862 
14 *599:75 *599:77 10.4854 
15 *599:77 *599:81 35.0303 
16 *599:81 *3503:A 43.7801 
17 *599:77 *3504:A 40 
18 *599:75 *3505:A 40 
19 *599:61 *3029:S 22.4823 
20 *599:42 *3030:S 20 
21 *599:12 *599:124 44.4393 
22 *599:124 *3506:A 20 
*END

*D_NET *600 0.0480749
*CONN
*I *3501:A I *D sg13g2_buf_1
*I *3500:A I *D sg13g2_buf_1
*I *3499:A I *D sg13g2_buf_1
*I *3507:A I *D sg13g2_buf_1
*I *3508:X O *D sg13g2_buf_1
*CAP
1 *3501:A 2.60565e-05
2 *3500:A 0
3 *3499:A 0
4 *3507:A 5.08741e-05
5 *3508:X 0.0001311
6 *600:102 0.000268404
7 *600:87 9.1011e-05
8 *600:81 0.00508636
9 *600:79 0.00499535
10 *600:77 0.00244669
11 *600:71 0.00294503
12 *600:65 0.000907108
13 *600:57 0.000715746
14 *600:49 0.000575384
15 *600:47 0.00038633
16 *600:39 0.00113809
17 *600:24 0.00135611
18 *600:12 0.00218373
19 *600:8 0.000283882
20 *3501:A *625:12 4.77425e-05
21 *600:12 *624:26 0
22 *600:24 *630:37 0.000177652
23 *600:39 *624:26 0
24 *600:39 *624:145 0.000124699
25 *600:39 *639:14 0
26 *600:47 *639:14 0
27 *600:65 *708:33 0.00140203
28 *600:71 *629:28 0.00140072
29 *600:71 *708:33 0.00187106
30 *600:77 *623:26 0.000770364
31 *600:77 *628:26 0
32 *600:77 *698:20 0
33 *600:77 *698:37 0
34 *600:77 *699:45 0.00167855
35 *600:81 *609:30 0.000276263
36 *600:81 *609:40 0.00021418
37 *600:81 *609:101 0.000571019
38 *600:81 *610:48 0.000864063
39 *600:81 *628:30 0
40 *600:81 *679:69 0.000929924
41 uio_out[6] *600:87 0
42 *2975:A *3501:A 4.77425e-05
43 *3179:CLK *600:65 7.86681e-05
44 *11:9 *600:81 0
45 *16:13 *600:47 0.00126155
46 *17:9 *600:81 0
47 *19:19 *600:12 0.000206766
48 *19:19 *600:39 0.000435054
49 *92:14 *600:81 0
50 *101:14 *600:102 0.000124862
51 *150:14 *600:102 0.0001122
52 *153:10 *600:102 0.000124862
53 *154:12 *600:47 0.000495496
54 *154:12 *600:65 0.00103379
55 *164:14 *600:102 0.000144542
56 *240:18 *600:77 0
57 *242:10 *600:81 0.0015537
58 *256:16 *600:57 0
59 *256:68 *600:77 0.000456194
60 *290:43 *600:8 0
61 *290:43 *600:24 0
62 *300:22 *600:57 7.78179e-05
63 *300:22 *600:102 0.000236209
64 *300:26 *600:77 0
65 *319:81 *600:39 0
66 *322:10 *600:24 0.00140881
67 *328:10 *600:77 7.78179e-05
68 *328:18 *600:77 7.78179e-05
69 *352:30 *600:81 0
70 *356:47 *600:24 0
71 *385:34 *600:8 0
72 *417:79 *600:65 7.86999e-05
73 *422:24 *600:71 0
74 *433:22 *600:57 7.78179e-05
75 *433:22 *600:102 0.000221363
76 *435:10 *600:24 0.00109266
77 *435:18 *600:24 0
78 *435:22 *600:8 7.44263e-05
79 *544:12 *600:47 0.00126373
80 *544:12 *600:57 0.000669162
81 *563:14 *600:81 0.000870083
82 *569:14 *600:81 0
83 *581:10 *600:81 0
84 *592:39 *600:39 0.00012785
85 *592:39 *600:47 0.000600078
86 *595:91 *600:81 0.000441935
87 *599:12 *3507:A 8.00842e-05
88 *599:124 *600:24 0.000607524
*RES
1 *3508:X *600:8 41.0918 
2 *600:8 *600:12 21.4008 
3 *600:12 *600:24 36.4594 
4 *600:24 *3507:A 40.5356 
5 *600:12 *600:39 26.2315 
6 *600:39 *600:47 48.6108 
7 *600:47 *600:49 20 
8 *600:49 *600:57 43.605 
9 *600:57 *600:65 47.0658 
10 *600:65 *600:71 48.755 
11 *600:71 *600:77 47.2126 
12 *600:77 *600:79 20 
13 *600:79 *600:81 50.5009 
14 *600:81 *600:87 40.5974 
15 *600:87 *3499:A 20 
16 *600:49 *600:102 43.1827 
17 *600:102 *3500:A 20 
18 *600:39 *3501:A 40.3193 
*END

*D_NET *601 0.0136144
*CONN
*I *3093:S I *D sg13g2_mux2_1
*I *3105:S I *D sg13g2_mux2_1
*I *3103:S I *D sg13g2_mux2_1
*I *3102:S I *D sg13g2_mux2_1
*I *3090:S I *D sg13g2_mux2_1
*I *3091:S I *D sg13g2_mux2_1
*I *3092:S I *D sg13g2_mux2_1
*I *3106:S I *D sg13g2_mux2_1
*I *3509:X O *D sg13g2_buf_1
*CAP
1 *3093:S 0
2 *3105:S 0
3 *3103:S 5.17186e-05
4 *3102:S 0.00052542
5 *3090:S 3.91544e-05
6 *3091:S 4.63501e-05
7 *3092:S 3.46921e-05
8 *3106:S 2.75057e-05
9 *3509:X 9.35022e-05
10 *601:69 0.000720098
11 *601:58 0.000455411
12 *601:54 0.00122881
13 *601:39 0.00153865
14 *601:33 0.00117601
15 *601:25 0.000879238
16 *601:10 0.000404634
17 *601:10 *3509:A 0
18 *601:25 *642:12 0.000235055
19 *601:54 *3268:RESET_B 0
20 *601:58 *642:53 0
21 *601:58 *642:64 0
22 *601:69 *642:75 0
23 *3102:A1 *3102:S 0.000255692
24 *3106:A0 *601:25 0
25 *3106:A1 *3106:S 0
26 *3268:D *601:54 0.000468653
27 *3269:CLK *601:54 0
28 *179:10 *601:69 0
29 *193:10 *601:39 0
30 *337:88 *3106:S 0
31 *340:10 *601:10 0
32 *340:10 *601:25 0
33 *340:10 *601:33 0
34 *450:30 *601:58 0
35 *451:10 *601:54 0.000555736
36 *451:12 *601:54 0.000449257
37 *451:18 *601:33 0
38 *451:18 *601:39 0.00146483
39 *451:18 *601:54 0.000212631
40 *462:31 *3102:S 0.000448499
41 *462:31 *601:58 0.000663882
42 *462:31 *601:69 0.000556783
43 *463:10 *3090:S 8.00842e-05
44 *463:10 *3102:S 0
45 *464:8 *601:58 0
46 *464:12 *3103:S 0
47 *464:12 *601:54 0
48 *466:12 *601:25 0.000585427
49 *466:18 *601:10 0.000181608
50 *466:18 *601:25 0.000235055
*RES
1 *3509:X *601:10 41.1639 
2 *601:10 *3106:S 40.3193 
3 *601:10 *601:25 24.1303 
4 *601:25 *601:33 46.8804 
5 *601:33 *601:39 28.8271 
6 *601:39 *3092:S 40.3193 
7 *601:39 *601:54 32.0407 
8 *601:54 *601:58 23.811 
9 *601:58 *3091:S 40.5356 
10 *601:58 *601:69 2.575 
11 *601:69 *3090:S 40.5356 
12 *601:69 *3102:S 46.5508 
13 *601:54 *3103:S 20.5356 
14 *601:33 *3105:S 20 
15 *601:25 *3093:S 20 
*END

*D_NET *602 0.0161334
*CONN
*I *3086:S I *D sg13g2_mux2_1
*I *3095:S I *D sg13g2_mux2_1
*I *3107:S I *D sg13g2_mux2_1
*I *3094:S I *D sg13g2_mux2_1
*I *3104:S I *D sg13g2_mux2_1
*I *3509:A I *D sg13g2_buf_1
*I *3510:X O *D sg13g2_buf_1
*CAP
1 *3086:S 4.32546e-05
2 *3095:S 0.00015181
3 *3107:S 0
4 *3094:S 0
5 *3104:S 0
6 *3509:A 8.43828e-05
7 *3510:X 6.68694e-05
8 *602:65 0.00105095
9 *602:59 0.00158546
10 *602:42 0.00111762
11 *602:36 0.000912828
12 *602:22 0.000901938
13 *602:12 0.00176852
14 *602:6 0.00123899
15 *3095:S *643:33 0
16 *602:22 *643:33 0.000177299
17 *602:42 *643:54 0.000609356
18 *602:42 *643:68 0.000106392
19 *602:59 *642:23 0.000181192
20 *602:59 *643:68 0.000768695
21 *602:59 *643:83 0.00117334
22 *602:65 *642:42 0
23 *602:65 *642:53 0
24 *602:65 *643:83 0.000144216
25 *3094:A0 *602:42 0
26 *3095:A0 *602:22 0
27 *3095:A0 *602:36 0
28 *3106:A0 *602:65 0
29 *3272:D *602:22 0
30 *3272:CLK *602:12 0
31 *192:10 *602:65 0.000182524
32 *193:10 *602:65 0.000341119
33 *195:8 *602:36 0
34 *333:63 *602:12 0
35 *337:88 *3509:A 0
36 *338:34 *602:42 0
37 *340:10 *602:65 0
38 *444:14 *3086:S 0
39 *450:30 *602:65 0
40 *452:8 *602:65 0.000160341
41 *452:16 *602:65 0.000821813
42 *452:29 *602:42 0.00124972
43 *452:29 *602:59 0.00127941
44 *454:20 *3095:S 1.53662e-05
45 *465:16 *602:65 0
46 *466:12 *602:59 0
47 *466:18 *602:36 0
48 *466:18 *602:42 0
49 *467:16 *602:22 0
50 *475:25 *3086:S 0
51 *475:25 *602:12 0
52 *601:10 *3509:A 0
*RES
1 *3510:X *602:6 20.8446 
2 *602:6 *602:12 33.2767 
3 *602:12 *602:22 25.0779 
4 *602:22 *602:36 44.223 
5 *602:36 *602:42 27.931 
6 *602:42 *3509:A 40.7519 
7 *602:42 *602:59 49.7541 
8 *602:59 *602:65 31.2991 
9 *602:65 *3104:S 20 
10 *602:36 *3094:S 20 
11 *602:22 *3107:S 20 
12 *602:12 *3095:S 41.6583 
13 *602:6 *3086:S 20.5356 
*END

*D_NET *603 0.00855015
*CONN
*I *3109:S I *D sg13g2_mux2_1
*I *3110:S I *D sg13g2_mux2_1
*I *3112:S I *D sg13g2_mux2_1
*I *3096:S I *D sg13g2_mux2_1
*I *3108:S I *D sg13g2_mux2_1
*I *3111:S I *D sg13g2_mux2_1
*I *3113:S I *D sg13g2_mux2_1
*I *3114:S I *D sg13g2_mux2_1
*I *3511:X O *D sg13g2_buf_1
*CAP
1 *3109:S 7.8973e-05
2 *3110:S 0.000202672
3 *3112:S 0
4 *3096:S 9.90578e-05
5 *3108:S 0.00048059
6 *3111:S 0
7 *3113:S 0
8 *3114:S 0.000583845
9 *3511:X 0
10 *603:74 0.000359753
11 *603:49 0.000720453
12 *603:40 0.000484794
13 *603:34 0.000737612
14 *603:30 0.00079969
15 *603:12 0.00103861
16 *603:6 0.000782721
17 *3108:S *3273:RESET_B 0
18 *3108:S *644:63 0.000193528
19 *3109:S *604:20 0.000266263
20 *3114:S *607:45 0
21 *3114:S *644:18 0
22 *603:12 *604:20 0
23 *603:12 *607:45 0
24 *603:30 *604:20 0
25 *603:30 *644:36 0.000450073
26 *603:34 *644:8 0
27 *603:74 *604:20 0.000236296
28 *3108:A1 *3108:S 0
29 *3111:A0 *3110:S 0
30 *3111:A0 *603:34 0
31 *3111:A0 *603:40 0
32 *3112:A0 *603:34 0
33 *3112:A0 *603:40 0
34 *3112:A0 *603:49 0
35 *3114:A0 *3114:S 0
36 *3273:D *3108:S 4.79124e-05
37 *3627:trim[21] *3108:S 0
38 *444:35 *3108:S 0.000858296
39 *467:24 *3108:S 0
40 *469:24 *3109:S 0.000129009
41 *472:8 *3096:S 0
42 *473:12 *603:34 0
43 *473:20 *3114:S 0
44 *474:16 *603:12 0
*RES
1 *3511:X *603:6 40 
2 *603:6 *603:12 25.2736 
3 *603:12 *3114:S 26.077 
4 *603:12 *3113:S 20 
5 *603:6 *603:30 4.0994 
6 *603:30 *603:34 23.9964 
7 *603:34 *603:40 23.8522 
8 *603:40 *3111:S 40 
9 *603:40 *603:49 1.5862 
10 *603:49 *3108:S 45.7268 
11 *603:49 *3096:S 41.0918 
12 *603:34 *3112:S 20 
13 *603:30 *603:74 1.0918 
14 *603:74 *3110:S 41.8334 
15 *603:74 *3109:S 41.339 
*END

*D_NET *604 0.0267669
*CONN
*I *3100:S I *D sg13g2_mux2_1
*I *3088:S I *D sg13g2_mux2_1
*I *3089:S I *D sg13g2_mux2_1
*I *3099:S I *D sg13g2_mux2_1
*I *3087:S I *D sg13g2_mux2_1
*I *3098:S I *D sg13g2_mux2_1
*I *3097:S I *D sg13g2_mux2_1
*I *3511:A I *D sg13g2_buf_1
*I *3512:X O *D sg13g2_buf_1
*CAP
1 *3100:S 0.000391939
2 *3088:S 0
3 *3089:S 0
4 *3099:S 0.000145897
5 *3087:S 8.24885e-05
6 *3098:S 7.18287e-05
7 *3097:S 0
8 *3511:A 0
9 *3512:X 2.7604e-05
10 *604:77 0.00056808
11 *604:67 0.000654664
12 *604:65 0.000922214
13 *604:47 0.000228386
14 *604:45 0.00184679
15 *604:34 0.0015796
16 *604:20 0.00119024
17 *604:14 0.00383498
18 *604:8 0.00277701
19 *604:14 *645:22 0.00274593
20 *604:14 *646:138 0
21 *604:20 *644:38 0.000144395
22 *604:20 *644:84 0.000175837
23 *604:34 *646:138 0
24 *604:45 *645:55 0.00231865
25 *604:45 *646:138 0
26 *604:65 *645:55 0.000159615
27 *604:65 *646:138 0
28 *604:77 *605:52 0.000715663
29 *3087:A1 *604:65 0.00161839
30 *3097:A0 *604:20 0
31 *3099:A1 *604:65 0.00156727
32 *3100:A0 *3100:S 0
33 *3109:S *604:20 0.000266263
34 *3627:sel[3] *604:20 0.000393247
35 *3627:trim[13] *604:77 0
36 *3627:trim[1] *604:77 0
37 *189:8 *604:77 0.000182517
38 *298:116 *604:14 0
39 *298:116 *604:34 0
40 *298:116 *604:45 0
41 *335:44 *604:14 0
42 *336:58 *604:14 0
43 *341:47 *604:77 0
44 *444:35 *604:14 0
45 *444:35 *604:20 0
46 *445:25 *604:65 0.000213286
47 *455:25 *604:20 4.77079e-05
48 *456:38 *3098:S 1.54008e-05
49 *458:21 *604:65 0.000235556
50 *469:24 *604:20 0
51 *474:16 *604:20 0.00140916
52 *603:12 *604:20 0
53 *603:30 *604:20 0
54 *603:74 *604:20 0.000236296
*RES
1 *3512:X *604:8 40.3193 
2 *604:8 *604:14 47.2155 
3 *604:14 *604:20 34.9453 
4 *604:20 *3511:A 40 
5 *604:14 *3097:S 20 
6 *604:8 *604:34 0.8446 
7 *604:34 *3098:S 40.7519 
8 *604:34 *604:45 14.6878 
9 *604:45 *604:47 20 
10 *604:47 *3087:S 20.7519 
11 *604:47 *3099:S 21.1845 
12 *604:45 *604:65 29.4966 
13 *604:65 *604:67 0.7519 
14 *604:67 *604:77 47.2924 
15 *604:77 *3089:S 20 
16 *604:67 *3088:S 20 
17 *604:65 *3100:S 23.8007 
*END

*D_NET *605 0.0868057
*CONN
*I *3038:S I *D sg13g2_mux2_1
*I *3037:S I *D sg13g2_mux2_1
*I *3039:S I *D sg13g2_mux2_1
*I *3115:S I *D sg13g2_mux2_1
*I *3116:S I *D sg13g2_mux2_1
*I *3101:S I *D sg13g2_mux2_1
*I *3027:S I *D sg13g2_mux2_1
*I *3026:S I *D sg13g2_mux2_1
*I *3513:X O *D sg13g2_buf_1
*CAP
1 *3038:S 3.43728e-05
2 *3037:S 2.55008e-05
3 *3039:S 0
4 *3115:S 7.06462e-05
5 *3116:S 0.00036093
6 *3101:S 5.08741e-05
7 *3027:S 0.000158779
8 *3026:S 0
9 *3513:X 0
10 *605:89 0.000792824
11 *605:83 0.000904736
12 *605:77 0.000848465
13 *605:75 0.00348001
14 *605:73 0.00316616
15 *605:71 0.00729193
16 *605:69 0.0074119
17 *605:52 0.0047527
18 *605:50 0.00493821
19 *605:38 0.00310531
20 *605:36 0.00304831
21 *605:25 0.000854401
22 *605:14 0.000652464
23 *605:4 0.00104873
24 *3027:S *647:37 0
25 *3115:S *653:20 0.000143908
26 *3116:S *653:20 0
27 *605:25 *607:41 0
28 *605:36 *647:37 0
29 *605:38 *646:41 0.00863155
30 *605:50 *646:47 0
31 *605:52 *646:136 0
32 *605:69 *646:41 7.47964e-05
33 *605:69 *646:47 0.000102543
34 *605:69 *646:49 0
35 *605:69 *646:136 5.27974e-05
36 *605:71 *646:49 0
37 *605:83 *3201:RESET_B 0
38 *605:89 *3201:RESET_B 0
39 *605:89 *653:20 0
40 *3026:A0 *605:14 0
41 *3028:A0 *605:14 0
42 *3037:A0 *605:83 0
43 *3201:CLK *605:83 0.000224907
44 *3281:CLK *605:89 0
45 *3627:clk *605:52 0
46 *3627:trim[0] *605:52 0
47 *3627:trim[13] *3101:S 8.00842e-05
48 *115:10 *3027:S 0
49 *204:10 *3116:S 0
50 *282:36 *605:75 0.0086296
51 *282:36 *605:77 0.00135679
52 *282:36 *605:83 0.000342629
53 *285:18 *605:25 0
54 *291:28 *605:25 0
55 *298:116 *605:38 0
56 *298:116 *605:50 0
57 *298:116 *605:52 0
58 *331:10 *3116:S 0.000342629
59 *331:10 *605:89 0.000213353
60 *334:61 *605:83 4.77425e-05
61 *334:61 *605:89 0.000337289
62 *335:46 *605:52 0.00215283
63 *335:63 *605:52 0.00309826
64 *337:12 *605:75 0
65 *341:38 *605:52 0
66 *341:47 *605:52 0
67 *352:74 *605:38 0
68 *390:12 *605:75 0.00034162
69 *390:18 *605:75 0.000159926
70 *390:18 *605:77 0.00114365
71 *394:12 *605:89 0
72 *413:39 *3116:S 0.000344393
73 *413:39 *605:89 0.000234598
74 *413:45 *605:71 0.00994387
75 *444:39 *605:52 0.00509299
76 *476:33 *3116:S 0
77 *482:10 *605:38 0
78 *482:10 *605:69 0
79 *599:75 *605:75 0
80 *599:75 *605:77 0
81 *604:77 *605:52 0.000715663
*RES
1 *3513:X *605:4 20 
2 *605:4 *605:14 46.0255 
3 *605:14 *3026:S 20 
4 *605:4 *605:25 43.811 
5 *605:25 *3027:S 21.6171 
6 *605:25 *605:36 22.9149 
7 *605:36 *605:38 42.6214 
8 *605:38 *605:50 42.6368 
9 *605:50 *605:52 66.1054 
10 *605:52 *3101:S 40.5356 
11 *605:38 *605:69 21.6995 
12 *605:69 *605:71 75.3754 
13 *605:71 *605:73 20 
14 *605:73 *605:75 39.9022 
15 *605:75 *605:77 6.283 
16 *605:77 *605:83 25.7989 
17 *605:83 *605:89 24.223 
18 *605:89 *3116:S 44.7174 
19 *605:89 *3115:S 40.9682 
20 *605:83 *3039:S 20 
21 *605:77 *3037:S 40.3193 
22 *605:75 *3038:S 40.3193 
*END

*D_NET *606 0.0241206
*CONN
*I *3312:D I *D sg13g2_dfrbpq_1
*I *3591:X O *D sg13g2_buf_1
*CAP
1 *3312:D 0
2 *3591:X 0.000526052
3 *606:56 0.000477319
4 *606:48 0.00312256
5 *606:44 0.0030561
6 *606:36 0.00112907
7 *606:28 0.00127317
8 *606:20 0.00172657
9 *606:12 0.00169767
10 *606:12 *612:18 0
11 *606:12 *616:28 0.000177583
12 *606:44 *679:46 0.000567444
13 *606:48 *2949:B 0
14 *606:48 *2963:B 0
15 *606:48 *3364:D 0
16 *606:48 *609:72 0
17 *606:48 *610:36 0.000663989
18 *606:48 *679:36 0.00303947
19 *606:48 *690:26 0
20 *606:56 *2963:B 0
21 *606:56 *610:24 0
22 *606:56 *657:16 0
23 uio_out[1] *606:28 0
24 uo_out[5] *606:20 0
25 *2929:A *606:48 8.03692e-05
26 *2945:B *606:48 0
27 *2947:A *606:48 0.000242281
28 *2948:A *606:48 0.000144823
29 *2959:A *606:48 0
30 *2960:A *606:48 0.000112683
31 *3166:B *606:48 0
32 *3292:CLK *606:12 0
33 *3293:D *606:48 0.000242396
34 *3363:D *606:48 0.000339766
35 *3587:A *606:48 0.000242281
36 *10:9 *606:20 0.000534671
37 *12:11 *606:56 0
38 *13:9 *606:44 0
39 *13:15 *606:28 0
40 *26:18 *606:28 0.000728442
41 *26:26 *606:48 0
42 *27:14 *606:36 0.00101961
43 *51:8 *606:48 0
44 *65:34 *606:48 8.02267e-05
45 *245:43 *606:12 0
46 *274:12 *606:56 0
47 *277:20 *606:48 0
48 *277:20 *606:56 0.000533654
49 *277:28 *606:56 0
50 *297:46 *606:48 0
51 *348:44 *606:48 8.02267e-05
52 *364:8 *606:12 0.000127645
53 *364:8 *606:20 0
54 *377:10 *606:20 0.000443022
55 *520:20 *606:48 0
56 *520:28 *606:48 0.000145053
57 *557:12 *606:28 0.000728442
58 *558:42 *606:20 0
59 *561:24 *606:48 0.00059919
60 *582:8 *606:12 0.000126005
61 *582:18 *606:12 0
62 *584:20 *606:20 0
63 *584:20 *606:44 0.000112777
*RES
1 *3591:X *606:12 44.944 
2 *606:12 *606:20 49.8468 
3 *606:20 *606:28 45.9534 
4 *606:28 *606:36 47.6529 
5 *606:36 *606:44 44.3775 
6 *606:44 *606:48 49.3035 
7 *606:48 *606:56 44.6556 
8 *606:56 *3312:D 20 
*END

*D_NET *607 0.0495523
*CONN
*I *3513:A I *D sg13g2_buf_1
*I *3512:A I *D sg13g2_buf_1
*I *3510:A I *D sg13g2_buf_1
*I *3508:A I *D sg13g2_buf_1
*I *3514:X O *D sg13g2_buf_1
*CAP
1 *3513:A 0
2 *3512:A 0
3 *3510:A 0
4 *3508:A 0
5 *3514:X 0
6 *607:60 0.00183369
7 *607:45 0.00396669
8 *607:43 0.00396669
9 *607:41 0.00726233
10 *607:39 0.00542863
11 *607:37 0.000157367
12 *607:33 0.0055322
13 *607:31 0.00577938
14 *607:20 6.76716e-05
15 *607:14 0.000566564
16 *607:4 0.000903441
17 *607:14 *630:16 0.000486708
18 *607:14 *630:26 8.07528e-05
19 *607:31 *647:31 0
20 *607:31 *701:127 0.000389469
21 *607:33 *647:31 2.24836e-05
22 *607:33 *647:33 0
23 *607:41 *647:33 0
24 *3114:S *607:45 0
25 *19:19 *607:14 0.00050102
26 *285:18 *607:41 0
27 *288:41 *607:14 0
28 *288:61 *607:20 0
29 *335:8 *607:45 0
30 *341:36 *607:60 0
31 *352:10 *607:33 0
32 *352:16 *607:31 2.22695e-05
33 *352:72 *607:33 0
34 *352:74 *607:33 0.0124727
35 *352:74 *607:41 0
36 *435:18 *607:20 0.000112236
37 *444:14 *607:45 0
38 *456:38 *607:60 0
39 *475:25 *607:45 0
40 *482:10 *607:41 0
41 *482:10 *607:60 0
42 *533:10 *607:14 0
43 *603:12 *607:45 0
44 *605:25 *607:41 0
*RES
1 *3514:X *607:4 20 
2 *607:4 *607:14 45.3148 
3 *607:14 *607:20 40.7519 
4 *607:20 *3508:A 20 
5 *607:4 *607:31 23.6359 
6 *607:31 *607:33 68.3302 
7 *607:33 *607:37 21.4008 
8 *607:37 *607:39 20 
9 *607:39 *607:41 67.5886 
10 *607:41 *607:43 20 
11 *607:43 *607:45 44.6608 
12 *607:45 *3510:A 20 
13 *607:41 *607:60 41.115 
14 *607:60 *3512:A 20 
15 *607:37 *3513:A 20 
*END

*D_NET *608 0.015538
*CONN
*I *2951:B I *D sg13g2_and2_1
*I *2950:B I *D sg13g2_and2_1
*I *2953:B I *D sg13g2_and2_1
*I *2952:B I *D sg13g2_and2_1
*I *2956:B I *D sg13g2_and2_1
*I *2957:B I *D sg13g2_and2_1
*I *2955:B I *D sg13g2_and2_1
*I *2954:B I *D sg13g2_and2_1
*I *3515:X O *D sg13g2_buf_1
*CAP
1 *2951:B 0
2 *2950:B 0
3 *2953:B 0
4 *2952:B 0.000102594
5 *2956:B 3.07197e-05
6 *2957:B 0
7 *2955:B 2.79594e-05
8 *2954:B 0.000197418
9 *3515:X 0.000507083
10 *608:82 0.00076923
11 *608:64 2.47768e-05
12 *608:58 0.000455401
13 *608:50 0.000690785
14 *608:34 0.000605217
15 *608:30 0.00111829
16 *608:28 0.000697417
17 *608:20 0.000575415
18 *608:18 0.00028994
19 *608:16 0.000905558
20 *608:10 0.00130196
21 *608:10 *641:50 0.000499311
22 *608:18 *612:84 2.14736e-05
23 *608:18 *618:10 0
24 *608:20 *618:10 0
25 *608:28 *3524:A 0.000231324
26 *608:28 *618:10 0.000595521
27 *608:30 *3524:A 0.000282567
28 uio_out[0] *608:28 0
29 uio_out[0] *608:34 0
30 uio_out[0] *608:58 0
31 *2954:A *2954:B 8.03692e-05
32 *2955:A *2954:B 0
33 *3154:A *608:28 0.000126952
34 *11:9 *608:58 0
35 *25:26 *2954:B 0
36 *25:26 *608:50 0
37 *25:26 *608:64 4.78853e-05
38 *30:20 *608:82 0.00109507
39 *33:14 *608:16 0
40 *279:20 *608:18 0.000288826
41 *279:20 *608:20 7.46936e-05
42 *280:14 *608:10 0.00171423
43 *300:85 *608:28 0.000103228
44 *380:38 *608:82 0
45 *514:42 *608:64 4.78853e-05
46 *515:14 *608:28 0
47 *515:14 *608:30 0
48 *556:12 *608:82 0
49 *558:24 *2954:B 0
50 *558:24 *608:50 0
51 *558:42 *2952:B 4.06811e-05
52 *559:16 *608:16 0.000317918
53 *567:12 *608:10 0
54 *571:8 *608:34 0
55 *571:18 *2952:B 8.01118e-05
56 *572:14 *608:50 0
57 *573:14 *608:58 0.000571925
58 *579:56 *608:16 0.00015025
59 *584:57 *608:10 0.00086799
*RES
1 *3515:X *608:10 48.549 
2 *608:10 *608:16 48.755 
3 *608:16 *608:18 1.339 
4 *608:18 *608:20 1.339 
5 *608:20 *608:28 5.047 
6 *608:28 *608:30 2.575 
7 *608:30 *608:34 21.0918 
8 *608:34 *2954:B 21.8334 
9 *608:34 *2955:B 20.3502 
10 *608:34 *608:50 2.266 
11 *608:50 *608:58 44.1303 
12 *608:58 *608:64 40.3193 
13 *608:64 *2957:B 20 
14 *608:50 *2956:B 20.3502 
15 *608:30 *608:82 47.4572 
16 *608:82 *2952:B 41.2592 
17 *608:28 *2953:B 40 
18 *608:20 *2950:B 40 
19 *608:18 *2951:B 40 
*END

*D_NET *609 0.0178972
*CONN
*I *2947:B I *D sg13g2_and2_1
*I *2949:B I *D sg13g2_and2_1
*I *2948:B I *D sg13g2_and2_1
*I *2946:A I *D sg13g2_inv_1
*I *2961:B I *D sg13g2_and2_1
*I *2960:B I *D sg13g2_and2_1
*I *2959:B I *D sg13g2_and2_1
*I *2958:B I *D sg13g2_and2_1
*I *3516:X O *D sg13g2_buf_1
*CAP
1 *2947:B 2.59325e-05
2 *2949:B 0.000658449
3 *2948:B 0
4 *2946:A 0
5 *2961:B 0
6 *2960:B 0
7 *2959:B 0
8 *2958:B 0
9 *3516:X 0.000752802
10 *609:103 0.000658449
11 *609:101 0.000295035
12 *609:95 0.000829376
13 *609:84 0.000658406
14 *609:72 6.25758e-05
15 *609:56 0.000269887
16 *609:40 0.00060377
17 *609:30 0.00123032
18 *609:20 0.0015627
19 *609:10 0.000878831
20 *609:8 0.000752802
21 *2947:B *610:48 4.77425e-05
22 *2949:B *3364:D 0.000315639
23 *609:8 *610:58 0
24 *609:30 *616:72 0
25 *609:95 *3364:RESET_B 0
26 uio_oe[4] *609:8 0
27 uio_oe[6] *609:95 0.000755858
28 uio_out[5] *609:40 0
29 uio_out[5] *609:56 0
30 *2947:A *2947:B 4.77702e-05
31 *2959:A *609:40 6.46834e-05
32 *2959:A *609:56 8.02267e-05
33 *2960:A *609:72 8.03417e-05
34 *3157:A *609:95 4.77425e-05
35 *3166:B *609:40 8.00842e-05
36 *3166:B *609:56 0.000130505
37 *3166:B *609:72 0.000112763
38 *3363:D *2949:B 0
39 *3587:A *2949:B 0.000241983
40 *11:9 *609:30 0.000262283
41 *11:9 *609:40 0.000442867
42 *11:9 *609:101 0.000568783
43 *26:18 *609:56 0
44 *65:34 *609:8 0
45 *66:22 *609:20 0
46 *66:22 *609:84 0
47 *216:8 *609:30 0
48 *276:12 *609:95 0
49 *300:52 *609:20 0
50 *345:62 *609:30 0.000144216
51 *349:8 *609:8 0
52 *349:14 *609:8 0
53 *349:22 *609:95 0
54 *365:8 *609:30 0
55 *379:20 *609:56 0.000127802
56 *508:30 *2949:B 0
57 *515:22 *609:56 7.90678e-05
58 *518:18 *609:20 0.0009054
59 *518:18 *609:30 8.02267e-05
60 *520:20 *2949:B 0.000404267
61 *560:10 *609:30 7.51285e-05
62 *561:36 *609:30 0.000177583
63 *562:10 *2949:B 4.75425e-05
64 *579:20 *609:20 0.000305433
65 *579:20 *609:84 0.000226527
66 *579:20 *609:95 0.000194213
67 *579:24 *609:20 0.000991019
68 *579:24 *609:30 0.000434184
69 *581:10 *609:40 0
70 *590:16 *609:40 0
71 *595:91 *609:30 0.000124547
72 *595:91 *609:40 0
73 *600:81 *609:30 0.000276263
74 *600:81 *609:40 0.00021418
75 *600:81 *609:101 0.000571019
76 *606:48 *2949:B 0
77 *606:48 *609:72 0
*RES
1 *3516:X *609:8 47.2718 
2 *609:8 *609:10 20 
3 *609:10 *609:20 8.96615 
4 *609:20 *609:30 48.3121 
5 *609:30 *609:40 43.8007 
6 *609:40 *609:56 43.09 
7 *609:56 *2958:B 20 
8 *609:40 *2959:B 20 
9 *609:30 *609:72 40.7519 
10 *609:72 *2960:B 20 
11 *609:20 *2961:B 20 
12 *609:10 *609:84 1.6171 
13 *609:84 *2946:A 20 
14 *609:84 *609:95 25.5255 
15 *609:95 *609:101 43.7801 
16 *609:101 *609:103 20 
17 *609:103 *2948:B 20 
18 *609:103 *2949:B 26.6126 
19 *609:95 *2947:B 40.3193 
*END

*D_NET *610 0.0311138
*CONN
*I *2963:B I *D sg13g2_and2_1
*I *2962:B I *D sg13g2_and2_1
*I *3516:A I *D sg13g2_buf_1
*I *3607:A I *D sg13g2_buf_1
*I *3515:A I *D sg13g2_buf_1
*I *3517:X O *D sg13g2_buf_1
*CAP
1 *2963:B 0.000165432
2 *2962:B 0
3 *3516:A 0
4 *3607:A 0
5 *3515:A 0
6 *3517:X 7.21913e-05
7 *610:90 0.000258501
8 *610:82 0.00336724
9 *610:72 0.00419728
10 *610:62 0.00124058
11 *610:58 0.00107451
12 *610:50 0.00101725
13 *610:48 0.000936178
14 *610:36 0.00153955
15 *610:24 0.00214681
16 *610:20 0.00208833
17 *610:8 0.000877297
18 *610:8 *639:38 0.000288184
19 *610:20 *639:38 0.000437366
20 *610:24 *3326:D 4.77702e-05
21 *610:24 *679:24 0.000551508
22 *610:24 *690:26 0
23 *610:24 *700:14 0
24 *610:36 *679:24 8.02269e-05
25 *610:36 *690:26 0.000729045
26 *610:90 *3520:A 8.00842e-05
27 uio_oe[4] *610:58 0
28 uio_oe[5] *610:58 0
29 uio_oe[7] *610:48 7.30101e-05
30 *2947:A *610:48 0
31 *2947:B *610:48 4.77425e-05
32 *2948:A *610:48 0.0001122
33 *3072:S *610:62 0
34 *3151:B *610:48 0
35 *3151:B *610:50 0.000144956
36 *3628:ext_trim[11] *610:82 0
37 *3628:ext_trim[13] *610:72 0
38 *3628:ext_trim[21] *610:82 0
39 *6:32 *610:82 0
40 *7:9 *610:20 0.000761731
41 *15:9 *610:24 0.00140932
42 *36:12 *610:82 0.000322001
43 *36:12 *610:90 8.00842e-05
44 *65:34 *610:72 0
45 *92:10 *610:58 7.48209e-05
46 *243:35 *610:8 0.000340704
47 *243:35 *610:20 0.000428093
48 *243:47 *610:20 0.000177583
49 *245:8 *610:58 0.000335278
50 *245:37 *610:58 0.000589381
51 *249:18 *610:20 0
52 *274:12 *610:24 0.000210196
53 *277:20 *2963:B 0
54 *297:46 *610:48 8.00425e-05
55 *297:46 *610:50 0
56 *297:46 *610:58 0
57 *298:50 *610:58 0
58 *299:28 *610:82 0
59 *299:28 *610:90 0
60 *299:30 *610:90 0.000180567
61 *342:12 *610:24 0
62 *345:42 *610:72 0
63 *348:44 *610:48 7.30101e-05
64 *349:22 *610:58 0
65 *427:6 *610:82 0
66 *427:18 *610:82 0
67 *427:53 *610:82 0
68 *428:14 *610:82 0
69 *429:20 *610:58 0.000235075
70 *429:20 *610:72 0
71 *429:31 *610:72 0
72 *439:22 *610:82 0
73 *441:8 *610:82 0
74 *443:10 *610:82 0
75 *492:31 *610:82 0
76 *518:12 *610:62 0.000208681
77 *519:22 *610:24 0
78 *519:30 *610:24 0
79 *520:20 *610:36 2.14736e-05
80 *562:14 *610:20 0.000695358
81 *566:30 *610:82 0.000369743
82 *566:30 *610:90 0.000272718
83 *578:10 *610:90 0.000283221
84 *579:12 *610:58 0
85 *581:10 *610:48 0.000863421
86 *600:81 *610:48 0.000864063
87 *606:48 *2963:B 0
88 *606:48 *610:36 0.000663989
89 *606:56 *2963:B 0
90 *606:56 *610:24 0
91 *609:8 *610:58 0
*RES
1 *3517:X *610:8 41.5862 
2 *610:8 *610:20 49.6511 
3 *610:20 *610:24 33.5136 
4 *610:24 *610:36 47.519 
5 *610:36 *610:48 49.3421 
6 *610:48 *610:50 0.9682 
7 *610:50 *610:58 30.3824 
8 *610:58 *610:62 21.6171 
9 *610:62 *610:72 49.1773 
10 *610:72 *610:82 34.1033 
11 *610:82 *610:90 43.1724 
12 *610:90 *3515:A 20 
13 *610:82 *3607:A 20 
14 *610:62 *3516:A 20 
15 *610:50 *2962:B 20 
16 *610:24 *2963:B 22.2145 
*END

*D_NET *611 0.0122416
*CONN
*I *3296:RESET_B I *D sg13g2_dfrbpq_1
*I *3309:RESET_B I *D sg13g2_dfrbpq_1
*I *3295:RESET_B I *D sg13g2_dfrbpq_1
*I *3322:RESET_B I *D sg13g2_dfrbpq_1
*I *3336:RESET_B I *D sg13g2_dfrbpq_1
*I *3344:RESET_B I *D sg13g2_dfrbpq_1
*I *3307:RESET_B I *D sg13g2_dfrbpq_1
*I *3308:RESET_B I *D sg13g2_dfrbpq_1
*I *3518:X O *D sg13g2_buf_1
*CAP
1 *3296:RESET_B 0.000771226
2 *3309:RESET_B 0
3 *3295:RESET_B 0.000127231
4 *3322:RESET_B 0
5 *3336:RESET_B 8.52344e-05
6 *3344:RESET_B 0
7 *3307:RESET_B 0.000496597
8 *3308:RESET_B 2.9025e-05
9 *3518:X 0.000100965
10 *611:98 0.00119461
11 *611:64 0.000597426
12 *611:41 0.00130161
13 *611:37 0.00050293
14 *611:31 0.000600041
15 *611:23 0.00109381
16 *611:14 0.000941427
17 *611:8 0.000860107
18 *3296:RESET_B *612:107 0
19 *611:64 *3528:A 0
20 *611:98 *612:107 0
21 *611:98 *612:122 0
22 uo_out[0] *611:41 0
23 uo_out[1] *611:41 0
24 uo_out[2] *611:31 0.000605341
25 uo_out[3] *611:64 0.000179389
26 *3142:A0 *3307:RESET_B 0
27 *3142:A0 *3336:RESET_B 0
28 *3142:A1 *3307:RESET_B 0
29 *3307:D *3307:RESET_B 0
30 *3307:CLK *611:14 0
31 *3308:D *611:14 0
32 *3336:D *3307:RESET_B 0
33 *3336:CLK *611:23 0
34 *3597:A *3307:RESET_B 0
35 *3597:A *611:64 0
36 *27:10 *3307:RESET_B 4.75425e-05
37 *27:10 *611:41 7.51285e-05
38 *27:10 *611:64 4.68833e-05
39 *39:8 *611:37 0.000158441
40 *39:8 *611:41 0.000341534
41 *281:28 *611:31 0.000175693
42 *281:28 *611:37 8.01995e-05
43 *317:51 *611:8 0
44 *317:51 *611:14 0
45 *317:51 *611:23 0
46 *339:50 *611:98 0
47 *382:12 *611:14 0
48 *512:22 *611:37 0.000179386
49 *512:22 *611:41 0.00023547
50 *513:10 *611:31 0
51 *537:8 *611:14 0
52 *553:10 *611:98 0
53 *560:30 *611:64 0.000672332
54 *571:18 *3307:RESET_B 0
55 *571:18 *611:64 0.000597204
56 *576:16 *3296:RESET_B 0
57 *576:16 *611:98 0
58 *584:14 *3307:RESET_B 0
59 *585:42 *3336:RESET_B 8.03417e-05
60 *585:62 *3336:RESET_B 6.44559e-05
61 *585:62 *611:31 0
62 *585:62 *611:37 0
*RES
1 *3518:X *611:8 40.9682 
2 *611:8 *611:14 23.5741 
3 *611:14 *3308:RESET_B 20.3502 
4 *611:14 *611:23 5.0779 
5 *611:23 *611:31 44.0067 
6 *611:31 *611:37 22.2454 
7 *611:37 *611:41 22.8222 
8 *611:41 *3307:RESET_B 24.015 
9 *611:41 *611:64 46.9422 
10 *611:64 *3344:RESET_B 20 
11 *611:37 *3336:RESET_B 40.9682 
12 *611:31 *3322:RESET_B 20 
13 *611:23 *3295:RESET_B 21.3493 
14 *611:8 *611:98 24.5629 
15 *611:98 *3309:RESET_B 20 
16 *611:98 *3296:RESET_B 26.5714 
*END

*D_NET *612 0.0184411
*CONN
*I *3323:RESET_B I *D sg13g2_dfrbpq_1
*I *3518:A I *D sg13g2_buf_1
*I *3337:RESET_B I *D sg13g2_dfrbpq_1
*I *3233:RESET_B I *D sg13g2_dfrbpq_1
*I *3318:RESET_B I *D sg13g2_dfrbpq_1
*I *3306:RESET_B I *D sg13g2_dfrbpq_1
*I *3292:RESET_B I *D sg13g2_dfrbpq_1
*I *3304:RESET_B I *D sg13g2_dfrbpq_1
*I *3519:X O *D sg13g2_buf_1
*CAP
1 *3323:RESET_B 0
2 *3518:A 0
3 *3337:RESET_B 5.45571e-05
4 *3233:RESET_B 2.60565e-05
5 *3318:RESET_B 2.74846e-05
6 *3306:RESET_B 0.000801858
7 *3292:RESET_B 0
8 *3304:RESET_B 0.000108799
9 *3519:X 0.000238711
10 *612:122 0.000289188
11 *612:107 0.00109137
12 *612:97 0.00163519
13 *612:84 0.000780489
14 *612:39 0.000344446
15 *612:20 0.000721058
16 *612:18 0.00157237
17 *612:16 0.000643717
18 *612:14 0.00115057
19 *612:12 0.00140888
20 *612:12 *675:8 0.000176083
21 *612:14 *675:8 0.00012559
22 *612:84 *618:10 0.000338443
23 *612:97 *3521:A 0
24 uo_out[5] *3304:RESET_B 7.30101e-05
25 uo_out[5] *612:20 0
26 uo_out[6] *612:39 0
27 *2953:A *3306:RESET_B 0.000729412
28 *3139:A0 *3306:RESET_B 0
29 *3296:RESET_B *612:107 0
30 *3296:D *612:97 0.000240404
31 *3304:CLK *612:14 0.000210386
32 *3304:CLK *612:16 0.000267843
33 *3304:CLK *612:18 0.00115732
34 *3304:CLK *612:20 2.21831e-05
35 *3309:D *612:107 0.000240492
36 *3309:CLK *612:12 0.000111114
37 *3496:A *612:84 0.000175693
38 *3577:A *3306:RESET_B 0
39 *7:35 *612:14 0
40 *13:21 *3306:RESET_B 0
41 *35:12 *612:12 0
42 *48:18 *612:97 0
43 *229:10 *3306:RESET_B 0.000175721
44 *239:30 *612:12 0.000111114
45 *246:12 *3233:RESET_B 4.77425e-05
46 *279:20 *612:84 0
47 *317:51 *612:122 0
48 *317:62 *612:122 0
49 *339:16 *612:12 0.000309219
50 *339:16 *612:14 0.000494966
51 *343:42 *3318:RESET_B 4.77425e-05
52 *366:46 *3306:RESET_B 0.000273207
53 *377:10 *612:18 0
54 *377:10 *612:20 0
55 *377:14 *3306:RESET_B 0.000498742
56 *377:31 *3306:RESET_B 0.000134271
57 *382:27 *612:107 1.54008e-05
58 *514:30 *612:39 0.000240876
59 *515:8 *612:84 0.00011101
60 *553:10 *612:122 0.000235055
61 *558:42 *612:39 0
62 *566:12 *612:84 0.000272718
63 *570:8 *3304:RESET_B 0
64 *571:18 *3304:RESET_B 4.77425e-05
65 *571:18 *612:39 0.000240876
66 *576:16 *612:97 0
67 *576:16 *612:107 0
68 *579:50 *3233:RESET_B 4.77425e-05
69 *579:64 *612:84 0
70 *582:18 *612:14 0
71 *582:18 *612:16 0
72 *587:18 *612:84 0.000144733
73 *595:12 *612:97 0.000112453
74 *595:63 *612:97 9.5609e-05
75 *606:12 *612:18 0
76 *608:18 *612:84 2.14736e-05
77 *611:98 *612:107 0
78 *611:98 *612:122 0
*RES
1 *3519:X *612:12 42.8737 
2 *612:12 *612:14 3.3166 
3 *612:14 *612:16 1.339 
4 *612:16 *612:18 5.5414 
5 *612:18 *612:20 1.8334 
6 *612:20 *3304:RESET_B 40.9167 
7 *612:20 *612:39 42.9561 
8 *612:39 *3292:RESET_B 40 
9 *612:18 *3306:RESET_B 48.8271 
10 *612:16 *3318:RESET_B 40.3193 
11 *612:14 *612:84 47.3336 
12 *612:84 *3233:RESET_B 40.3193 
13 *612:12 *612:97 27.8245 
14 *612:97 *612:107 7.622 
15 *612:107 *3337:RESET_B 20.5356 
16 *612:107 *612:122 43.1415 
17 *612:122 *3518:A 20 
18 *612:97 *3323:RESET_B 20 
*END

*D_NET *613 0.012693
*CONN
*I *3345:RESET_B I *D sg13g2_dfrbpq_1
*I *3297:RESET_B I *D sg13g2_dfrbpq_1
*I *3291:RESET_B I *D sg13g2_dfrbpq_1
*I *3325:RESET_B I *D sg13g2_dfrbpq_1
*I *3339:RESET_B I *D sg13g2_dfrbpq_1
*I *3324:RESET_B I *D sg13g2_dfrbpq_1
*I *3310:RESET_B I *D sg13g2_dfrbpq_1
*I *3338:RESET_B I *D sg13g2_dfrbpq_1
*I *3520:X O *D sg13g2_buf_1
*CAP
1 *3345:RESET_B 0
2 *3297:RESET_B 0.000221165
3 *3291:RESET_B 0.000721331
4 *3325:RESET_B 0.000183206
5 *3339:RESET_B 3.19843e-05
6 *3324:RESET_B 5.38348e-05
7 *3310:RESET_B 0
8 *3338:RESET_B 0
9 *3520:X 0.000237088
10 *613:74 0.00122671
11 *613:61 0.000672771
12 *613:55 0.000703382
13 *613:42 0.000276743
14 *613:30 0.000367658
15 *613:20 0.00053023
16 *613:16 0.00105787
17 *613:10 0.00107309
18 *3297:RESET_B *2982:A1 0.0003868
19 *613:10 *663:10 1.54008e-05
20 *613:16 *663:10 0.000530036
21 *613:61 *2982:A1 0.000241195
22 uo_out[0] *613:16 0.00050329
23 uo_out[0] *613:42 0.000323029
24 uo_out[0] *613:55 0.000214719
25 *3133:A0 *3291:RESET_B 0
26 *3133:S *3291:RESET_B 0
27 *3145:A0 *613:16 0
28 *3145:S *613:16 0.000121782
29 *3298:D *3291:RESET_B 0
30 *3310:D *613:20 0
31 *3338:D *613:16 0
32 *3338:D *613:30 0
33 *3339:CLK *3291:RESET_B 0
34 *3347:D *3291:RESET_B 0
35 *3614:A *3325:RESET_B 0
36 *43:8 *3297:RESET_B 0.0004022
37 *43:8 *613:61 0.000241167
38 *44:8 *3325:RESET_B 0
39 *44:8 *3339:RESET_B 0
40 *44:12 *613:55 0
41 *44:12 *613:74 0
42 *325:28 *3291:RESET_B 0
43 *325:28 *3325:RESET_B 0
44 *328:43 *613:74 0
45 *339:46 *3339:RESET_B 1.54008e-05
46 *339:46 *613:61 0.00050146
47 *339:50 *613:30 0
48 *371:25 *613:74 0
49 *384:26 *613:16 0.000234726
50 *384:26 *613:42 0.000341949
51 *384:26 *613:55 0.000607939
52 *511:22 *613:16 0.000112426
53 *541:8 *613:74 0
54 *566:30 *613:10 0.000143351
55 *575:18 *613:16 0
56 *577:10 *613:16 0
57 *577:14 *613:30 0.000399086
58 *577:14 *613:61 0
59 *577:14 *613:74 0
*RES
1 *3520:X *613:10 22.5956 
2 *613:10 *613:16 28.9198 
3 *613:16 *613:20 21.4008 
4 *613:20 *613:30 44.2024 
5 *613:30 *3338:RESET_B 20 
6 *613:20 *3310:RESET_B 20 
7 *613:16 *613:42 1.5862 
8 *613:42 *3324:RESET_B 40.4476 
9 *613:42 *613:55 22.8222 
10 *613:55 *613:61 24.1921 
11 *613:61 *3339:RESET_B 40.1345 
12 *613:61 *613:74 23.811 
13 *613:74 *3325:RESET_B 22.0497 
14 *613:74 *3291:RESET_B 27.1662 
15 *613:55 *3297:RESET_B 22.6986 
16 *613:10 *3345:RESET_B 20 
*END

*D_NET *614 0.0164796
*CONN
*I *3232:RESET_B I *D sg13g2_dfrbpq_1
*I *3346:RESET_B I *D sg13g2_dfrbpq_1
*I *3520:A I *D sg13g2_buf_1
*I *3519:A I *D sg13g2_buf_1
*I *3340:RESET_B I *D sg13g2_dfrbpq_1
*I *3335:RESET_B I *D sg13g2_dfrbpq_1
*I *3332:RESET_B I *D sg13g2_dfrbpq_1
*I *3521:X O *D sg13g2_buf_1
*CAP
1 *3232:RESET_B 0.00031819
2 *3346:RESET_B 0.000285141
3 *3520:A 5.61002e-05
4 *3519:A 5.13997e-05
5 *3340:RESET_B 5.61002e-05
6 *3335:RESET_B 0.000284413
7 *3332:RESET_B 0.000502732
8 *3521:X 0
9 *614:87 0.00110306
10 *614:76 0.000937402
11 *614:41 0.000705887
12 *614:33 0.000855444
13 *614:18 0.00137189
14 *614:14 0.00096314
15 *614:6 0.000802021
16 *3335:RESET_B *615:14 0
17 *3335:RESET_B *618:49 0
18 *614:41 *618:49 7.32897e-05
19 uio_out[1] *614:41 0
20 uo_out[4] *614:76 0
21 uo_out[6] *614:14 0.000124547
22 uo_out[6] *614:18 0.00128071
23 *3309:CLK *3519:A 8.00842e-05
24 *13:21 *614:33 0.000649444
25 *33:8 *614:76 0.000231428
26 *34:16 *614:14 0.000634011
27 *317:22 *614:18 0
28 *317:43 *3332:RESET_B 0.000402343
29 *339:40 *3232:RESET_B 0
30 *343:36 *3332:RESET_B 4.77425e-05
31 *343:36 *614:18 7.30101e-05
32 *343:36 *614:33 0.000289659
33 *343:42 *3332:RESET_B 0.000434528
34 *343:50 *3332:RESET_B 0
35 *354:33 *3232:RESET_B 0
36 *354:33 *614:87 0
37 *436:36 *3232:RESET_B 0
38 *436:36 *614:87 0
39 *570:14 *614:76 0.000333805
40 *570:14 *614:87 0.000707656
41 *572:30 *3340:RESET_B 8.00842e-05
42 *578:10 *614:76 0.000281802
43 *578:10 *614:87 0.000845143
44 *579:50 *614:18 0.000338485
45 *580:32 *614:14 0
46 *581:22 *614:41 0
47 *586:12 *614:14 0.000504234
48 *586:20 *614:14 4.669e-05
49 *586:106 *614:33 0.000647849
50 *610:90 *3520:A 8.00842e-05
*RES
1 *3521:X *614:6 40 
2 *614:6 *614:14 44.8101 
3 *614:14 *614:18 26.0358 
4 *614:18 *3332:RESET_B 24.9955 
5 *614:18 *614:33 25.1191 
6 *614:33 *614:41 44.1921 
7 *614:41 *3335:RESET_B 42.3999 
8 *614:33 *3340:RESET_B 40.5356 
9 *614:14 *3519:A 40.5356 
10 *614:6 *614:76 4.4805 
11 *614:76 *3520:A 40.5356 
12 *614:76 *614:87 6.283 
13 *614:87 *3346:RESET_B 42.3943 
14 *614:87 *3232:RESET_B 42.7089 
*END

*D_NET *615 0.0170722
*CONN
*I *3235:RESET_B I *D sg13g2_dfrbpq_1
*I *3234:RESET_B I *D sg13g2_dfrbpq_1
*I *3247:RESET_B I *D sg13g2_dfrbpq_1
*I *3333:RESET_B I *D sg13g2_dfrbpq_1
*I *3319:RESET_B I *D sg13g2_dfrbpq_1
*I *3294:RESET_B I *D sg13g2_dfrbpq_1
*I *3305:RESET_B I *D sg13g2_dfrbpq_1
*I *3321:RESET_B I *D sg13g2_dfrbpq_1
*I *3522:X O *D sg13g2_buf_1
*CAP
1 *3235:RESET_B 0.000714387
2 *3234:RESET_B 0
3 *3247:RESET_B 0
4 *3333:RESET_B 3.0805e-05
5 *3319:RESET_B 0.000408273
6 *3294:RESET_B 0
7 *3305:RESET_B 0.000372392
8 *3321:RESET_B 0
9 *3522:X 0.00109151
10 *615:104 0.000851791
11 *615:98 0.000386831
12 *615:85 0.000961529
13 *615:63 0.000630287
14 *615:54 0.000147889
15 *615:46 0.000505295
16 *615:33 0.00080874
17 *615:22 0.000637519
18 *615:16 0.00107947
19 *615:14 0.00109151
20 *3235:RESET_B *616:45 4.77425e-05
21 *3319:RESET_B *2985:A1 0.000240492
22 *615:22 *618:55 0
23 *615:33 *618:55 0
24 uio_out[2] *615:85 0
25 uio_out[3] *3305:RESET_B 0
26 uio_out[3] *615:33 0
27 *2950:A *615:14 0
28 *3129:A1 *615:54 0.000279855
29 *3154:B *615:14 0.000305026
30 *3335:RESET_B *615:14 0
31 *12:13 *615:98 0
32 *29:24 *615:46 0.000306524
33 *29:24 *615:63 0.000291468
34 *37:16 *615:98 0
35 *39:34 *615:22 0.000242355
36 *39:34 *615:33 3.24568e-05
37 *39:48 *615:33 0
38 *66:22 *3319:RESET_B 0.0004338
39 *66:22 *615:63 0
40 *77:12 *615:14 0
41 *171:8 *615:85 0.000287178
42 *172:18 *3235:RESET_B 0
43 *246:12 *3235:RESET_B 3.09112e-06
44 *246:12 *615:85 0.000209056
45 *246:12 *615:98 0.000129555
46 *246:12 *615:104 0.000208853
47 *246:16 *3235:RESET_B 0
48 *278:18 *615:14 0.000305016
49 *294:63 *615:14 0.000144768
50 *300:85 *615:14 0.000465679
51 *344:55 *615:54 0.000284379
52 *366:8 *615:54 0.000178206
53 *379:8 *3305:RESET_B 0.000365562
54 *379:8 *615:33 0.000233795
55 *379:20 *3305:RESET_B 0.00038373
56 *427:18 *3235:RESET_B 0.000369231
57 *427:32 *3235:RESET_B 5.61253e-05
58 *490:15 *3235:RESET_B 0
59 *491:6 *3235:RESET_B 0
60 *491:15 *3235:RESET_B 0
61 *494:6 *615:104 0
62 *494:15 *3235:RESET_B 0
63 *494:15 *615:104 0
64 *579:24 *3319:RESET_B 0
65 *579:50 *615:85 0.000209056
66 *579:50 *615:98 0.000144956
67 *582:127 *615:85 0
68 *582:135 *615:33 0.000181071
69 *582:135 *615:46 0.000306524
70 *582:135 *615:63 0.000242098
71 *583:113 *615:14 0.000225118
72 *583:121 *615:14 0.000241167
*RES
1 *3522:X *615:14 30.9901 
2 *615:14 *615:16 20 
3 *615:16 *615:22 23.4505 
4 *615:22 *3321:RESET_B 20 
5 *615:22 *615:33 22.9252 
6 *615:33 *3305:RESET_B 43.5638 
7 *615:33 *615:46 22.0497 
8 *615:46 *615:54 42.1527 
9 *615:54 *3294:RESET_B 20 
10 *615:46 *615:63 2.3999 
11 *615:63 *3319:RESET_B 23.9964 
12 *615:63 *3333:RESET_B 20.3502 
13 *615:16 *615:85 27.0143 
14 *615:85 *3247:RESET_B 20 
15 *615:85 *615:98 42.8016 
16 *615:98 *615:104 41.4008 
17 *615:104 *3234:RESET_B 20 
18 *615:104 *3235:RESET_B 26.5302 
*END

*D_NET *616 0.0223053
*CONN
*I *3236:RESET_B I *D sg13g2_dfrbpq_1
*I *3250:RESET_B I *D sg13g2_dfrbpq_1
*I *3249:RESET_B I *D sg13g2_dfrbpq_1
*I *3293:RESET_B I *D sg13g2_dfrbpq_1
*I *3320:RESET_B I *D sg13g2_dfrbpq_1
*I *3334:RESET_B I *D sg13g2_dfrbpq_1
*I *3248:RESET_B I *D sg13g2_dfrbpq_1
*I *3522:A I *D sg13g2_buf_1
*I *3523:X O *D sg13g2_buf_1
*CAP
1 *3236:RESET_B 0
2 *3250:RESET_B 0
3 *3249:RESET_B 0
4 *3293:RESET_B 0
5 *3320:RESET_B 0.000283254
6 *3334:RESET_B 0
7 *3248:RESET_B 0
8 *3522:A 0.000134531
9 *3523:X 0
10 *616:129 0
11 *616:125 0.000367067
12 *616:112 0.000803328
13 *616:105 0.00122353
14 *616:72 0.0011146
15 *616:60 0.000992501
16 *616:58 0.000842285
17 *616:45 0.000349215
18 *616:28 0.00060068
19 *616:20 0.001705
20 *616:12 0.00197442
21 *616:10 0.00129568
22 *616:4 0.00101545
23 *616:10 *618:63 0
24 *616:28 *670:16 0.000636286
25 *616:45 *694:8 0
26 *616:58 *618:63 0
27 *616:105 *618:63 0
28 uio_out[5] *616:45 0
29 uio_out[7] *616:58 0.00144265
30 *3235:RESET_B *616:45 4.77425e-05
31 *3235:D *616:105 0
32 *3334:D *616:60 1.54008e-05
33 *12:13 *616:125 0
34 *25:44 *616:60 0.000273053
35 *33:14 *616:28 0.000701556
36 *51:12 *616:72 0
37 *51:29 *616:125 0
38 *64:16 *616:12 0.000272949
39 *64:16 *616:58 0.000144768
40 *64:16 *616:105 0
41 *90:14 *616:112 0.000176599
42 *90:14 *616:125 0.000129562
43 *172:18 *616:105 1.51e-05
44 *216:8 *616:58 0.000494
45 *246:16 *616:105 0
46 *246:16 *616:112 0
47 *278:18 *3522:A 0.000240478
48 *294:63 *616:20 0
49 *300:52 *3320:RESET_B 0
50 *300:52 *616:72 0
51 *300:69 *616:12 0
52 *300:69 *616:20 0
53 *300:69 *616:58 0
54 *300:85 *616:20 0.000371695
55 *343:28 *616:20 0.00116328
56 *343:28 *616:45 0.000813876
57 *343:36 *616:20 0.000208254
58 *345:62 *616:72 8.00424e-05
59 *355:25 *3522:A 0.000240444
60 *365:8 *616:58 0
61 *427:32 *616:45 4.77425e-05
62 *489:23 *616:112 0
63 *489:23 *616:125 0
64 *491:15 *616:105 0
65 *492:19 *616:58 0
66 *492:19 *616:105 0
67 *496:17 *616:72 0
68 *516:8 *616:112 0
69 *518:18 *3320:RESET_B 0
70 *518:18 *616:72 0.000662517
71 *543:12 *616:72 0.000305878
72 *560:10 *616:58 0
73 *561:36 *616:60 0.00020837
74 *580:28 *616:72 0
75 *587:88 *616:45 0.000180368
76 *588:46 *616:10 0.0005536
77 *588:46 *616:105 0
78 *590:16 *616:45 0
79 *606:12 *616:28 0.000177583
80 *609:30 *616:72 0
*RES
1 *3523:X *616:4 20 
2 *616:4 *616:10 42.575 
3 *616:10 *616:12 3.3475 
4 *616:12 *616:20 32.2364 
5 *616:20 *616:28 45.4899 
6 *616:28 *3522:A 41.6171 
7 *616:12 *616:45 44.3775 
8 *616:45 *3248:RESET_B 20 
9 *616:10 *616:58 48.4872 
10 *616:58 *616:60 1.8334 
11 *616:60 *616:72 48.5078 
12 *616:72 *3334:RESET_B 20 
13 *616:72 *3320:RESET_B 22.266 
14 *616:60 *3293:RESET_B 20 
15 *616:4 *616:105 46.9216 
16 *616:105 *3249:RESET_B 20 
17 *616:105 *616:112 3.9964 
18 *616:112 *3250:RESET_B 20 
19 *616:112 *616:125 44.0994 
20 *616:125 *616:129 40 
21 *616:129 *3236:RESET_B 20 
*END

*D_NET *617 0.0303363
*CONN
*I *3313:D I *D sg13g2_dfrbpq_1
*I *3592:X O *D sg13g2_buf_1
*CAP
1 *3313:D 0
2 *3592:X 0
3 *617:28 0.000747896
4 *617:22 0.00238784
5 *617:14 0.00428936
6 *617:12 0.00299941
7 *617:6 0.000350005
8 *617:12 *624:14 0
9 *617:12 *641:20 0.000560005
10 *617:14 *648:14 0
11 *617:28 *679:8 0
12 *617:28 *679:24 0
13 *2939:S *617:28 0
14 *16:9 *617:22 0
15 *16:9 *617:28 0
16 *16:13 *617:14 0
17 *54:16 *617:14 0.00967703
18 *54:24 *617:22 0.00104317
19 *245:16 *617:22 0.000410598
20 *246:43 *617:22 0
21 *272:14 *617:14 0
22 *356:43 *617:14 0
23 *422:20 *617:14 0.00242633
24 *422:89 *617:14 0.00183356
25 *562:71 *617:14 0.00146609
26 *573:22 *617:22 0.00177933
27 *591:62 *617:12 0.000365689
*RES
1 *3592:X *617:6 40 
2 *617:6 *617:12 43.7801 
3 *617:12 *617:14 47.071 
4 *617:14 *617:22 37.4276 
5 *617:22 *617:28 45.2942 
6 *617:28 *3313:D 20 
*END

*D_NET *618 0.0224938
*CONN
*I *3341:RESET_B I *D sg13g2_dfrbpq_1
*I *3342:RESET_B I *D sg13g2_dfrbpq_1
*I *3523:A I *D sg13g2_buf_1
*I *3521:A I *D sg13g2_buf_1
*I *3524:X O *D sg13g2_buf_1
*CAP
1 *3341:RESET_B 2.18538e-05
2 *3342:RESET_B 0
3 *3523:A 0
4 *3521:A 0.000120213
5 *3524:X 0
6 *618:98 0.00031912
7 *618:90 0.000897144
8 *618:82 0.00150638
9 *618:63 0.000500524
10 *618:55 0.00274669
11 *618:49 0.00181844
12 *618:24 0.000442153
13 *618:18 0.000751574
14 *618:10 0.00141071
15 *618:4 0.00145985
16 *3341:RESET_B *695:16 4.77425e-05
17 *3521:A *693:10 7.9225e-05
18 *618:82 *695:16 0.000370879
19 uio_out[1] *618:49 0
20 uio_out[7] *618:63 0.000286337
21 *2929:A *618:90 0.000859686
22 *3151:B *618:98 0.000498743
23 *3309:CLK *618:18 0.000144052
24 *3319:CLK *618:55 0
25 *3335:RESET_B *618:49 0
26 *3496:A *618:10 0
27 *29:24 *618:10 0
28 *30:20 *618:90 0
29 *39:34 *618:10 0.000112211
30 *39:34 *618:49 3.22309e-05
31 *39:34 *618:55 0
32 *39:48 *618:55 0.000369406
33 *51:12 *618:82 0
34 *64:16 *618:63 0
35 *66:22 *618:55 0
36 *239:30 *618:18 0.000499949
37 *279:20 *618:10 0
38 *294:20 *618:10 0.000144768
39 *294:20 *618:49 0.000512734
40 *294:63 *3341:RESET_B 3.23417e-05
41 *294:63 *618:55 0
42 *294:63 *618:82 0.000369484
43 *298:50 *618:98 0.000273003
44 *298:62 *618:98 0.00031432
45 *298:77 *618:90 0.00133616
46 *300:52 *618:82 0
47 *300:69 *618:82 0
48 *300:77 *618:55 0
49 *344:69 *618:55 0
50 *380:12 *618:49 0.000125294
51 *492:6 *618:82 0
52 *492:19 *618:63 0
53 *492:19 *618:82 0
54 *495:6 *618:55 0
55 *495:19 *618:55 0
56 *495:19 *618:82 0
57 *515:14 *618:10 0.00117636
58 *576:16 *3521:A 0.000148557
59 *579:38 *618:55 0
60 *580:32 *618:24 0.000473143
61 *581:10 *618:90 0.000408906
62 *582:127 *618:55 0
63 *583:87 *618:90 0.000603856
64 *586:12 *618:18 4.77699e-05
65 *586:102 *618:18 8.00842e-05
66 *586:106 *618:10 0
67 *588:8 *618:10 0
68 *588:10 *618:10 0
69 *588:38 *618:18 0.0001447
70 *588:46 *618:63 0
71 *595:63 *618:24 0
72 *608:18 *618:10 0
73 *608:20 *618:10 0
74 *608:28 *618:10 0.000595521
75 *612:84 *618:10 0.000338443
76 *612:97 *3521:A 0
77 *614:41 *618:49 7.32897e-05
78 *615:22 *618:55 0
79 *615:33 *618:55 0
80 *616:10 *618:63 0
81 *616:58 *618:63 0
82 *616:105 *618:63 0
*RES
1 *3524:X *618:4 20 
2 *618:4 *618:10 30.712 
3 *618:10 *618:18 44.1921 
4 *618:18 *618:24 43.1312 
5 *618:24 *3521:A 41.4214 
6 *618:4 *618:49 44.7339 
7 *618:49 *618:55 11.0617 
8 *618:55 *618:63 44.3775 
9 *618:63 *3523:A 20 
10 *618:55 *618:82 48.8271 
11 *618:82 *618:90 49.476 
12 *618:90 *618:98 43.6977 
13 *618:98 *3342:RESET_B 20 
14 *618:82 *3341:RESET_B 20.3193 
*END

*D_NET *619 0.0127726
*CONN
*I *3245:RESET_B I *D sg13g2_dfrbpq_1
*I *3217:RESET_B I *D sg13g2_dfrbpq_1
*I *3216:RESET_B I *D sg13g2_dfrbpq_1
*I *3351:RESET_B I *D sg13g2_dfrbpq_1
*I *3300:RESET_B I *D sg13g2_dfrbpq_1
*I *3330:RESET_B I *D sg13g2_dfrbpq_1
*I *3301:RESET_B I *D sg13g2_dfrbpq_1
*I *3290:RESET_B I *D sg13g2_dfrbpq_1
*I *3525:X O *D sg13g2_buf_1
*CAP
1 *3245:RESET_B 0.000260134
2 *3217:RESET_B 0.000287677
3 *3216:RESET_B 6.32666e-05
4 *3351:RESET_B 0
5 *3300:RESET_B 0.000141738
6 *3330:RESET_B 9.18407e-05
7 *3301:RESET_B 0.000483414
8 *3290:RESET_B 0
9 *3525:X 0.000384568
10 *619:73 0.000544521
11 *619:64 0.000184566
12 *619:36 0.000299253
13 *619:23 0.00114387
14 *619:12 0.000809496
15 *619:10 0.00046368
16 *619:8 0.000382411
17 *619:23 *3526:A 0.000305735
18 *3125:A0 *619:23 0
19 *3125:S *619:12 0
20 *3245:D *3245:RESET_B 0
21 *3245:CLK *619:12 0
22 *3290:D *619:23 0.000176909
23 *3316:D *619:23 0
24 *3330:CLK *3330:RESET_B 0
25 *3351:CLK *3245:RESET_B 0
26 *3579:A *619:23 0
27 *3628:clk2_phase_sel[0] *3245:RESET_B 0
28 *3628:clk2_phase_sel[0] *619:8 0.000143351
29 *3628:clk2_phase_sel[0] *619:10 0.000112426
30 *3628:clk2_phase_sel[0] *619:12 8.01116e-05
31 *270:44 *3217:RESET_B 0.000608353
32 *270:44 *619:73 0.00103261
33 *294:41 *619:64 0.000822186
34 *324:18 *3300:RESET_B 0.000235055
35 *324:18 *3301:RESET_B 0.000586671
36 *324:18 *619:36 0.000181608
37 *324:24 *3301:RESET_B 0.000503996
38 *325:22 *3300:RESET_B 0
39 *325:22 *3301:RESET_B 0
40 *325:22 *619:36 0
41 *574:8 *3217:RESET_B 0.000586759
42 *574:8 *619:73 0.00103302
43 *589:72 *3245:RESET_B 0
44 *595:18 *619:64 0.000823405
*RES
1 *3525:X *619:8 21.3184 
2 *619:8 *619:10 0.7519 
3 *619:10 *619:12 1.8649 
4 *619:12 *3290:RESET_B 20 
5 *619:12 *619:23 26.386 
6 *619:23 *3301:RESET_B 45.4946 
7 *619:23 *619:36 0.8446 
8 *619:36 *3330:RESET_B 41.4008 
9 *619:36 *3300:RESET_B 41.4514 
10 *619:10 *619:64 44.1303 
11 *619:64 *3351:RESET_B 20 
12 *619:8 *619:73 24.7998 
13 *619:73 *3216:RESET_B 40.5356 
14 *619:73 *3217:RESET_B 44.223 
15 *3525:X *3245:RESET_B 42.4985 
*END

*D_NET *620 0.00737624
*CONN
*I *3350:RESET_B I *D sg13g2_dfrbpq_1
*I *3329:RESET_B I *D sg13g2_dfrbpq_1
*I *3328:RESET_B I *D sg13g2_dfrbpq_1
*I *3316:RESET_B I *D sg13g2_dfrbpq_1
*I *3526:X O *D sg13g2_buf_1
*CAP
1 *3350:RESET_B 0
2 *3329:RESET_B 0
3 *3328:RESET_B 0
4 *3316:RESET_B 5.78122e-05
5 *3526:X 6.07414e-05
6 *620:57 0.000224641
7 *620:37 0.000421971
8 *620:27 0.00097069
9 *620:21 0.00102532
10 *620:8 0.000370514
11 *620:27 *2978:A0 4.77425e-05
12 *3328:CLK *620:37 0.000176674
13 *3568:A *620:27 0
14 *299:71 *620:57 0.000235055
15 *325:22 *620:37 0
16 *373:8 *620:37 0.000176815
17 *373:10 *620:37 0
18 *511:16 *620:8 0.000342449
19 *511:16 *620:21 0.0013863
20 *513:10 *620:8 0.000342449
21 *513:10 *620:21 0.0014084
22 *540:10 *620:27 0
23 *583:146 *620:57 0.000128662
*RES
1 *3526:X *620:8 41.5862 
2 *620:8 *3316:RESET_B 40.4476 
3 *620:8 *620:21 26.5302 
4 *620:21 *620:27 4.8822 
5 *620:27 *620:37 44.6968 
6 *620:37 *3328:RESET_B 20 
7 *620:27 *3329:RESET_B 20 
8 *620:21 *620:57 42.5956 
9 *620:57 *3350:RESET_B 20 
*END

*D_NET *621 0.00987373
*CONN
*I *3331:RESET_B I *D sg13g2_dfrbpq_1
*I *3302:RESET_B I *D sg13g2_dfrbpq_1
*I *3317:RESET_B I *D sg13g2_dfrbpq_1
*I *3299:RESET_B I *D sg13g2_dfrbpq_1
*I *3246:RESET_B I *D sg13g2_dfrbpq_1
*I *3303:RESET_B I *D sg13g2_dfrbpq_1
*I *3298:RESET_B I *D sg13g2_dfrbpq_1
*I *3347:RESET_B I *D sg13g2_dfrbpq_1
*I *3527:X O *D sg13g2_buf_1
*CAP
1 *3331:RESET_B 0
2 *3302:RESET_B 0.000171292
3 *3317:RESET_B 0
4 *3299:RESET_B 0.000667176
5 *3246:RESET_B 0.000269895
6 *3303:RESET_B 0
7 *3298:RESET_B 0.000458204
8 *3347:RESET_B 2.77263e-05
9 *3527:X 0
10 *621:84 0.000353571
11 *621:75 0.000360261
12 *621:58 0.00118786
13 *621:22 0.00101391
14 *621:14 0.000803896
15 *621:8 0.000577841
16 *621:6 0.00037473
17 *3246:RESET_B *3527:A 0.000112426
18 *3298:RESET_B *2983:A0 0
19 *621:58 *3527:A 0
20 *621:75 *622:52 0.000287672
21 *3134:S *3299:RESET_B 0
22 *3137:S *3298:RESET_B 0
23 *3246:D *3246:RESET_B 0
24 *3299:D *3299:RESET_B 0
25 *3303:D *621:22 0
26 *3317:D *621:75 0
27 *3347:D *3298:RESET_B 0
28 *3347:D *3347:RESET_B 0
29 *226:10 *3299:RESET_B 0
30 *299:54 *621:8 0.000181695
31 *299:54 *621:14 0.000554492
32 *299:54 *621:58 0.000289002
33 *326:32 *621:75 0
34 *326:40 *621:75 0
35 *328:71 *3246:RESET_B 0
36 *328:71 *3299:RESET_B 8.00842e-05
37 *328:71 *621:58 0.000433203
38 *354:12 *3299:RESET_B 0
39 *362:24 *621:22 0.000341205
40 *374:18 *3298:RESET_B 0
41 *574:8 *621:22 0.000340704
42 *584:57 *621:8 0.000160219
43 *584:57 *621:14 0.000557987
44 *584:57 *621:58 0.000268679
45 *589:14 *3298:RESET_B 0
46 *589:14 *621:22 0
47 *590:44 *3246:RESET_B 0
*RES
1 *3527:X *621:6 40 
2 *621:6 *621:8 0.8446 
3 *621:8 *621:14 23.9758 
4 *621:14 *621:22 45.5826 
5 *621:22 *3347:RESET_B 20.3502 
6 *621:22 *3298:RESET_B 24.3466 
7 *621:14 *3303:RESET_B 20 
8 *621:8 *3246:RESET_B 42.241 
9 *621:6 *621:58 24.2539 
10 *621:58 *3299:RESET_B 26.9731 
11 *621:58 *621:75 42.0909 
12 *621:75 *3317:RESET_B 20 
13 *621:75 *621:84 2.1836 
14 *621:84 *3302:RESET_B 22.266 
15 *621:84 *3331:RESET_B 20 
*END

*D_NET *622 0.0289846
*CONN
*I *3525:A I *D sg13g2_buf_1
*I *3526:A I *D sg13g2_buf_1
*I *3527:A I *D sg13g2_buf_1
*I *3524:A I *D sg13g2_buf_1
*I *3528:X O *D sg13g2_buf_1
*CAP
1 *3525:A 0
2 *3526:A 0.000299775
3 *3527:A 0.000387595
4 *3524:A 0.000190023
5 *3528:X 0.00025487
6 *622:67 0.000518343
7 *622:52 0.00225942
8 *622:39 0.00429767
9 *622:37 0.00273707
10 *622:20 0.00105545
11 *622:10 0.0013886
12 *622:10 *3528:A 0
13 uio_out[0] *3524:A 0
14 uo_out[4] *622:10 0
15 *3127:A1 *622:20 0.000400889
16 *3130:A1 *622:39 0
17 *3131:A1 *622:39 0
18 *3138:A1 *3527:A 4.68833e-05
19 *3139:A0 *622:20 0
20 *3139:S *622:20 0.000885965
21 *3245:CLK *622:67 0
22 *3246:RESET_B *3527:A 0.000112426
23 *3296:CLK *622:39 0
24 *25:26 *622:10 4.75442e-05
25 *214:10 *622:39 0.000609183
26 *226:10 *622:39 0
27 *226:10 *622:52 0
28 *280:14 *622:10 0.000490951
29 *280:14 *622:37 0.000212344
30 *326:32 *622:52 0
31 *326:40 *3527:A 0
32 *326:40 *622:52 0
33 *328:56 *622:39 0
34 *328:71 *622:39 0
35 *328:71 *622:52 0
36 *353:27 *622:67 0.000447597
37 *355:14 *622:39 0
38 *363:18 *622:39 0
39 *366:46 *3524:A 0.000126769
40 *366:60 *622:37 0.000369003
41 *368:10 *622:39 0
42 *376:10 *622:39 5.30319e-05
43 *376:10 *622:52 0.000554579
44 *376:12 *622:39 0.00661489
45 *376:34 *622:37 7.86681e-05
46 *377:31 *622:20 0.00020815
47 *380:18 *622:20 8.01392e-05
48 *380:30 *622:20 0.000175836
49 *405:26 *622:52 0
50 *423:12 *622:67 0
51 *514:8 *622:67 0.000240377
52 *539:8 *622:39 0
53 *548:8 *622:52 0
54 *567:12 *622:10 0.000332693
55 *567:12 *622:37 0.000232431
56 *582:45 *622:39 0.00182511
57 *583:127 *622:39 0
58 *584:45 *622:37 0.000209384
59 *585:75 *622:20 0.000133647
60 *585:75 *622:37 0
61 *595:18 *622:52 0
62 *608:28 *3524:A 0.000231324
63 *608:30 *3524:A 0.000282567
64 *619:23 *3526:A 0.000305735
65 *621:58 *3527:A 0
66 *621:75 *622:52 0.000287672
*RES
1 *3528:X *622:10 43.1415 
2 *622:10 *622:20 49.2082 
3 *622:20 *3524:A 42.3278 
4 *622:10 *622:37 43.5741 
5 *622:37 *622:39 34.711 
6 *622:39 *3527:A 43.3475 
7 *622:39 *622:52 34.1934 
8 *622:52 *3526:A 22.9149 
9 *622:52 *622:67 45.4281 
10 *622:67 *3525:A 20 
*END

*D_NET *623 0.0420684
*CONN
*I *3174:RESET_B I *D sg13g2_dfrbpq_1
*I *3367:RESET_B I *D sg13g2_dfrbpq_1
*I *3171:RESET_B I *D sg13g2_dfrbpq_1
*I *3312:RESET_B I *D sg13g2_dfrbpq_1
*I *3326:RESET_B I *D sg13g2_dfrbpq_1
*I *3313:RESET_B I *D sg13g2_dfrbpq_1
*I *3175:RESET_B I *D sg13g2_dfrbpq_1
*I *3359:RESET_B I *D sg13g2_dfrbpq_1
*I *3529:X O *D sg13g2_buf_1
*CAP
1 *3174:RESET_B 0
2 *3367:RESET_B 0.000385802
3 *3171:RESET_B 0
4 *3312:RESET_B 2.60565e-05
5 *3326:RESET_B 0.000142157
6 *3313:RESET_B 0
7 *3175:RESET_B 0
8 *3359:RESET_B 0.00042842
9 *3529:X 0.000430531
10 *623:140 0.000958909
11 *623:106 0.00042519
12 *623:100 0.000822695
13 *623:89 0.000831326
14 *623:79 0.00139696
15 *623:77 0.000249832
16 *623:73 0.00102882
17 *623:60 0.00107511
18 *623:50 0.000600431
19 *623:46 0.00150472
20 *623:36 0.0022929
21 *623:26 0.00150534
22 *623:18 0.00243372
23 *623:12 0.00235875
24 *3326:RESET_B *679:63 0.000259011
25 *3359:RESET_B *3362:RESET_B 1.54008e-05
26 *3367:RESET_B *689:27 0.000143642
27 *3367:RESET_B *697:28 0.000337503
28 *623:12 *629:12 7.92265e-05
29 *623:18 *639:22 0.00283337
30 *623:18 *666:43 0
31 *623:26 *698:37 0
32 *623:26 *699:45 0.000343381
33 *623:36 *639:22 7.33256e-05
34 *623:36 *674:14 0.000443366
35 *623:36 *699:18 0.000180882
36 *623:46 *632:60 0.00133763
37 *623:50 *3362:RESET_B 0.000403782
38 *623:60 *3362:RESET_B 0.000595483
39 *623:73 *657:16 0.000704229
40 *623:73 *667:8 0.00026591
41 *623:77 *657:16 0.00086225
42 *623:77 *667:8 0.00086225
43 *623:100 *679:8 0
44 *623:106 *679:63 8.01995e-05
45 *623:140 *689:27 7.3287e-05
46 *3077:A0 *623:12 0.000208037
47 *3433:A *623:73 0
48 *12:11 *623:89 0
49 *12:11 *623:140 0
50 *71:10 *623:89 8.00842e-05
51 *73:8 *623:140 0
52 *90:14 *3359:RESET_B 0
53 *90:14 *623:46 0.00040169
54 *90:14 *623:50 0.000388353
55 *90:14 *623:60 0.000467574
56 *98:10 *623:89 0.000179389
57 *167:16 *623:18 7.30101e-05
58 *273:20 *623:26 0.000610484
59 *277:20 *3326:RESET_B 0.00027444
60 *277:20 *623:106 0.000306754
61 *292:10 *3367:RESET_B 0
62 *292:10 *623:89 0
63 *292:10 *623:100 0
64 *297:10 *623:18 0
65 *297:10 *623:36 0
66 *297:26 *623:89 0
67 *298:28 *3312:RESET_B 4.77425e-05
68 *320:33 *623:12 0.000369553
69 *339:12 *623:26 0
70 *342:12 *623:60 0
71 *342:12 *623:100 0.000727922
72 *342:12 *623:106 0.000176236
73 *348:55 *623:60 0.000126047
74 *351:20 *3359:RESET_B 0.000596876
75 *351:20 *623:60 0.000143908
76 *385:34 *623:18 0
77 *385:40 *623:18 0.00310943
78 *385:52 *623:36 0.000647442
79 *435:22 *623:18 0.0018226
80 *487:16 *623:46 0.000126047
81 *493:16 *623:140 0
82 *508:10 *623:46 0
83 *508:20 *623:89 0.000176394
84 *508:20 *623:100 0.000290565
85 *510:10 *623:36 0.000176638
86 *522:63 *623:46 0.000435106
87 *522:71 *623:46 0
88 *523:14 *623:89 1.54008e-05
89 *532:8 *623:89 0
90 *533:10 *623:12 0.000208035
91 *554:12 *3312:RESET_B 4.77425e-05
92 *563:14 *623:100 0
93 *564:14 *623:140 0
94 *583:44 *623:46 0.000272718
95 *600:77 *623:26 0.000770364
*RES
1 *3529:X *623:12 44.6968 
2 *623:12 *623:18 46.5946 
3 *623:18 *623:26 46.5714 
4 *623:26 *623:36 49.4245 
5 *623:36 *623:46 33.2664 
6 *623:46 *623:50 22.6986 
7 *623:50 *623:60 44.6968 
8 *623:60 *3359:RESET_B 24.5938 
9 *623:60 *623:73 23.3166 
10 *623:73 *623:77 24.0582 
11 *623:77 *623:79 0.5974 
12 *623:79 *623:89 46.9216 
13 *623:89 *3175:RESET_B 20 
14 *623:79 *623:100 25.6135 
15 *623:100 *623:106 22.8943 
16 *623:106 *3313:RESET_B 20 
17 *623:106 *3326:RESET_B 21.8334 
18 *623:100 *3312:RESET_B 40.3193 
19 *623:77 *3171:RESET_B 20 
20 *623:73 *623:140 43.548 
21 *623:140 *3367:RESET_B 44.017 
22 *623:50 *3174:RESET_B 20 
*END

*D_NET *624 0.0389094
*CONN
*I *3529:A I *D sg13g2_buf_1
*I *3363:RESET_B I *D sg13g2_dfrbpq_1
*I *3239:RESET_B I *D sg13g2_dfrbpq_1
*I *3354:RESET_B I *D sg13g2_dfrbpq_1
*I *3343:RESET_B I *D sg13g2_dfrbpq_1
*I *3364:RESET_B I *D sg13g2_dfrbpq_1
*I *3238:RESET_B I *D sg13g2_dfrbpq_1
*I *3237:RESET_B I *D sg13g2_dfrbpq_1
*I *3530:X O *D sg13g2_buf_1
*CAP
1 *3529:A 0
2 *3363:RESET_B 5.85329e-05
3 *3239:RESET_B 0
4 *3354:RESET_B 0
5 *3343:RESET_B 0.000263307
6 *3364:RESET_B 0.000479147
7 *3238:RESET_B 0
8 *3237:RESET_B 0.000318594
9 *3530:X 0.000150342
10 *624:145 5.93491e-05
11 *624:130 0.00155447
12 *624:92 0.000787535
13 *624:88 0.000413935
14 *624:78 0.00102503
15 *624:60 0.000463975
16 *624:58 0.000982287
17 *624:56 0.000385981
18 *624:54 0.00183287
19 *624:50 0.00170894
20 *624:46 0.00162501
21 *624:40 0.00100903
22 *624:32 0.00231532
23 *624:26 0.00348713
24 *624:14 0.00270596
25 *624:10 0.00066387
26 *624:10 *3533:A 1.54282e-05
27 *624:10 *627:10 0
28 *624:14 *630:16 0
29 *624:14 *641:20 0
30 *624:40 *632:60 0.00037042
31 *624:40 *649:16 0.000370657
32 *624:40 *703:66 0.000384926
33 *624:46 *625:58 0
34 *624:88 *697:28 0
35 uio_oe[6] *3364:RESET_B 0
36 uio_oe[6] *624:92 0
37 uio_oe[7] *624:88 0.000233886
38 *3074:S *624:78 0
39 *3363:CLK *624:130 0
40 *3628:ext_trim[5] *624:26 0.00111648
41 *18:19 *624:26 0.000609673
42 *19:19 *624:26 0
43 *51:29 *624:50 0
44 *51:54 *624:50 0
45 *74:12 *3364:RESET_B 0.000176394
46 *90:14 *3237:RESET_B 0.000597921
47 *90:14 *624:54 0.00019354
48 *90:14 *624:56 0.00032381
49 *90:14 *624:58 0.000323252
50 *90:14 *624:60 0.000258338
51 *91:8 *624:78 0
52 *163:14 *624:40 0
53 *242:18 *624:78 0
54 *246:20 *624:50 0
55 *247:52 *624:50 0
56 *257:30 *624:14 0
57 *276:12 *3364:RESET_B 0.00065833
58 *276:12 *624:88 0.000235107
59 *276:12 *624:92 0
60 *287:27 *624:88 0
61 *288:41 *624:10 0
62 *291:58 *624:10 0
63 *292:10 *3343:RESET_B 0
64 *292:10 *624:88 0.000111568
65 *297:14 *624:50 0
66 *297:36 *3364:RESET_B 7.92265e-05
67 *345:87 *3343:RESET_B 0.000435799
68 *347:29 *624:130 0
69 *347:31 *624:130 0
70 *351:20 *3237:RESET_B 0.000597921
71 *351:20 *624:54 0
72 *351:20 *624:56 0
73 *351:20 *624:58 0.000315552
74 *351:20 *624:60 0.000273739
75 *414:24 *624:26 0
76 *432:16 *624:32 0.00359003
77 *432:23 *624:32 0
78 *432:37 *624:26 7.49317e-05
79 *432:37 *624:32 0
80 *436:28 *624:26 0
81 *436:28 *624:32 0.00492167
82 *498:17 *624:26 0
83 *503:8 *624:46 0
84 *508:30 *3363:RESET_B 0.000112683
85 *520:8 *624:78 0
86 *520:20 *3363:RESET_B 0.000112799
87 *520:20 *624:130 0
88 *523:20 *624:130 0
89 *532:8 *624:130 0
90 *533:40 *624:40 0
91 *592:78 *624:130 0
92 *600:12 *624:26 0
93 *600:39 *624:26 0
94 *600:39 *624:145 0.000124699
95 *609:95 *3364:RESET_B 0
96 *617:12 *624:14 0
*RES
1 *3530:X *624:10 41.133 
2 *624:10 *624:14 24.1539 
3 *624:14 *624:26 41.6815 
4 *624:26 *624:32 44.2462 
5 *624:32 *624:40 48.7653 
6 *624:40 *624:46 40.3502 
7 *624:46 *624:50 35.0277 
8 *624:50 *624:54 21.4008 
9 *624:54 *624:56 2.266 
10 *624:56 *624:58 2.266 
11 *624:58 *624:60 1.8334 
12 *624:60 *3237:RESET_B 23.9964 
13 *624:60 *3238:RESET_B 20 
14 *624:58 *624:78 45.7886 
15 *624:78 *624:88 44.1097 
16 *624:88 *624:92 20.3502 
17 *624:92 *3364:RESET_B 44.9955 
18 *624:92 *3343:RESET_B 42.9149 
19 *624:78 *3354:RESET_B 20 
20 *624:56 *3239:RESET_B 20 
21 *624:54 *624:130 31.8965 
22 *624:130 *3363:RESET_B 40.7519 
23 *624:14 *624:145 40.5974 
24 *624:145 *3529:A 20 
*END

*D_NET *625 0.0375317
*CONN
*I *3352:RESET_B I *D sg13g2_dfrbpq_1
*I *3365:RESET_B I *D sg13g2_dfrbpq_1
*I *3177:RESET_B I *D sg13g2_dfrbpq_1
*I *3176:RESET_B I *D sg13g2_dfrbpq_1
*I *3327:RESET_B I *D sg13g2_dfrbpq_1
*I *3353:RESET_B I *D sg13g2_dfrbpq_1
*I *3355:RESET_B I *D sg13g2_dfrbpq_1
*I *3356:RESET_B I *D sg13g2_dfrbpq_1
*I *3531:X O *D sg13g2_buf_1
*CAP
1 *3352:RESET_B 0.000241382
2 *3365:RESET_B 0
3 *3177:RESET_B 0
4 *3176:RESET_B 0.000237652
5 *3327:RESET_B 0
6 *3353:RESET_B 0
7 *3355:RESET_B 0
8 *3356:RESET_B 0.000586985
9 *3531:X 0.00122189
10 *625:132 0.000464724
11 *625:117 0.000786691
12 *625:100 0.00101907
13 *625:91 0.000121981
14 *625:83 0.000974868
15 *625:77 0.00103907
16 *625:58 0.000948839
17 *625:49 0.000227395
18 *625:41 0.00138684
19 *625:24 0.00291106
20 *625:22 0.00170922
21 *625:20 0.000328862
22 *625:12 0.00155075
23 *625:12 *3545:A 0
24 *625:12 *692:69 0
25 *625:20 *631:26 0.000111568
26 *625:24 *702:12 0.00243459
27 *625:41 *632:60 0
28 *625:41 *649:16 0.000582095
29 *625:49 *649:16 0.000273739
30 *625:49 *700:14 0
31 *625:58 *700:14 0
32 *625:83 *690:20 8.00842e-05
33 *625:83 *700:14 0
34 *625:100 *2937:A1 8.00842e-05
35 *625:100 *690:20 0.000226249
36 *625:132 *666:16 0.000179073
37 *2943:S *625:100 0
38 *2975:A *625:12 0.000111567
39 *3077:S *625:12 0
40 *3177:D *625:132 0
41 *3353:D *625:77 0.000519683
42 *3353:D *625:83 0.00069912
43 *3353:D *625:91 0.000280964
44 *3501:A *625:12 4.77425e-05
45 *3593:A *625:12 0.000144542
46 *3628:ext_trim[3] *625:20 0.000111568
47 *18:9 *625:91 0.000177891
48 *51:54 *625:58 0.000230981
49 *53:8 *3176:RESET_B 7.99631e-05
50 *53:8 *625:91 4.77425e-05
51 *75:22 *625:100 0
52 *75:22 *625:117 0.00027327
53 *75:22 *625:132 0.000112384
54 *76:10 *625:12 0
55 *90:24 *625:58 0
56 *99:10 *3176:RESET_B 0
57 *99:10 *625:100 0
58 *244:10 *3176:RESET_B 8.01995e-05
59 *245:24 *625:77 4.77425e-05
60 *246:70 *3356:RESET_B 0.000494527
61 *246:70 *625:24 0.00130738
62 *246:100 *625:20 0.00012812
63 *277:10 *3356:RESET_B 0
64 *277:20 *625:77 0
65 *277:20 *625:91 4.77425e-05
66 *298:22 *625:132 0
67 *299:10 *625:24 0.00592109
68 *320:33 *625:12 0
69 *323:10 *625:20 0
70 *323:20 *625:20 0
71 *351:69 *625:41 0.00104891
72 *351:69 *625:49 0.000273739
73 *416:43 *3356:RESET_B 0
74 *418:10 *625:24 0.000557253
75 *431:42 *625:49 0.000177583
76 *436:10 *625:24 0.000642443
77 *436:20 *625:24 0.000283868
78 *487:10 *625:24 0
79 *487:29 *625:20 0.000822015
80 *487:29 *625:24 0
81 *493:24 *625:58 0
82 *503:8 *625:58 0
83 *522:48 *625:132 0
84 *533:40 *3352:RESET_B 7.98582e-05
85 *533:40 *625:77 0
86 *544:46 *625:100 0
87 *544:46 *625:117 0
88 *544:46 *625:132 0
89 *564:8 *625:58 0
90 *583:20 *625:20 0.000181273
91 *583:36 *3356:RESET_B 0.000286378
92 *583:36 *625:24 0.00244544
93 *592:20 *625:12 0.000111568
94 *592:29 *625:12 3.23417e-05
95 *592:140 *625:132 0
96 *624:46 *625:58 0
*RES
1 *3531:X *625:12 30.4236 
2 *625:12 *625:20 44.5629 
3 *625:20 *625:22 20 
4 *625:22 *625:24 34.2166 
5 *625:24 *3356:RESET_B 45.8092 
6 *625:24 *625:41 27.0246 
7 *625:41 *625:49 42.678 
8 *625:49 *3355:RESET_B 20 
9 *625:41 *625:58 24.5526 
10 *625:58 *3353:RESET_B 40 
11 *625:58 *625:77 44.1865 
12 *625:77 *625:83 23.8522 
13 *625:83 *625:91 41.6583 
14 *625:91 *3327:RESET_B 20 
15 *625:83 *625:100 24.2127 
16 *625:100 *3176:RESET_B 41.8746 
17 *625:100 *625:117 22.9252 
18 *625:117 *3177:RESET_B 20 
19 *625:117 *625:132 44.017 
20 *625:132 *3365:RESET_B 20 
21 *625:77 *3352:RESET_B 42.0368 
*END

*D_NET *626 0.0269451
*CONN
*I *3531:A I *D sg13g2_buf_1
*I *3183:RESET_B I *D sg13g2_dfrbpq_1
*I *3361:RESET_B I *D sg13g2_dfrbpq_1
*I *3357:RESET_B I *D sg13g2_dfrbpq_1
*I *3173:RESET_B I *D sg13g2_dfrbpq_1
*I *3172:RESET_B I *D sg13g2_dfrbpq_1
*I *3360:RESET_B I *D sg13g2_dfrbpq_1
*I *3182:RESET_B I *D sg13g2_dfrbpq_1
*I *3532:X O *D sg13g2_buf_1
*CAP
1 *3531:A 0.000191794
2 *3183:RESET_B 0.000133554
3 *3361:RESET_B 0.000299751
4 *3357:RESET_B 0.000761658
5 *3173:RESET_B 0.000197645
6 *3172:RESET_B 0.000365605
7 *3360:RESET_B 2.18381e-05
8 *3182:RESET_B 0.00029387
9 *3532:X 0.00029455
10 *626:94 0.00115219
11 *626:72 0.00111234
12 *626:64 0.000784784
13 *626:53 0.000682623
14 *626:32 0.000934336
15 *626:30 0.000720925
16 *626:24 0.00184947
17 *626:18 0.00336085
18 *626:10 0.0024605
19 *3172:RESET_B *2941:A1 0
20 *3172:RESET_B *3554:A 0.000112569
21 *3172:RESET_B *708:18 0.000758676
22 *3173:RESET_B *3368:RESET_B 0
23 *3357:RESET_B *632:60 0
24 *3361:RESET_B *3357:CLK 8.01995e-05
25 *3361:RESET_B *629:67 0.000422101
26 *3361:RESET_B *708:18 0
27 *3531:A *3545:A 0
28 *3531:A *647:31 0
29 *3531:A *692:69 0
30 *626:10 *647:31 0.000111685
31 *626:18 *3017:B1 0.00010609
32 *626:18 *706:59 0.00188845
33 *626:24 *706:51 0
34 *626:30 *705:8 0.000816916
35 *626:30 *705:29 0.000127853
36 *626:53 *673:10 0.000143969
37 *626:72 *2941:A1 0
38 *626:72 *669:10 0.000180682
39 *626:72 *708:18 0.00136588
40 *626:94 *629:67 0.000234309
41 *626:94 *708:18 0
42 *2975:A *3531:A 6.99456e-05
43 *3000:B *3172:RESET_B 0.000112596
44 *15:13 *3172:RESET_B 0
45 *68:50 *626:53 0
46 *236:40 *626:24 0
47 *259:36 *3182:RESET_B 0.000341132
48 *262:16 *626:30 0.000285687
49 *262:16 *626:32 0
50 *266:18 *3182:RESET_B 0
51 *277:10 *3357:RESET_B 0.000208035
52 *288:41 *626:10 0
53 *288:41 *626:18 0
54 *291:58 *626:10 0
55 *291:58 *626:18 0
56 *318:31 *626:30 0.00127069
57 *318:37 *626:30 0.000501546
58 *318:37 *626:32 0.000233801
59 *318:37 *626:53 8.00842e-05
60 *318:46 *626:53 0
61 *318:48 *3357:RESET_B 0
62 *318:48 *626:53 0.000207978
63 *318:48 *626:64 0.000208035
64 *318:62 *3357:RESET_B 0
65 *322:33 *626:18 0.000663716
66 *348:18 *3173:RESET_B 0
67 *507:8 *3183:RESET_B 0.000175693
68 *522:10 *3531:A 4.68848e-05
69 *522:10 *626:10 5.30319e-05
70 *522:10 *626:18 0.000231152
71 *555:12 *626:10 0.000111685
72 *583:44 *3357:RESET_B 0.000175693
*RES
1 *3532:X *626:10 42.5853 
2 *626:10 *626:18 39.5597 
3 *626:18 *626:24 32.2879 
4 *626:24 *626:30 48.2606 
5 *626:30 *626:32 1.339 
6 *626:32 *3182:RESET_B 42.8325 
7 *626:32 *626:53 25.2015 
8 *626:53 *3360:RESET_B 20.3502 
9 *626:53 *626:64 21.4008 
10 *626:64 *626:72 7.2409 
11 *626:72 *3172:RESET_B 44.3157 
12 *626:72 *3173:RESET_B 41.6171 
13 *626:64 *626:94 1.0918 
14 *626:94 *3357:RESET_B 46.592 
15 *626:94 *3361:RESET_B 43.0488 
16 *626:30 *3183:RESET_B 41.1845 
17 *626:10 *3531:A 41.854 
*END

*D_NET *627 0.0283597
*CONN
*I *3181:RESET_B I *D sg13g2_dfrbpq_1
*I *3225:RESET_B I *D sg13g2_dfrbpq_1
*I *3170:RESET_B I *D sg13g2_dfrbpq_1
*I *3184:RESET_B I *D sg13g2_dfrbpq_1
*I *3178:RESET_B I *D sg13g2_dfrbpq_1
*I *3179:RESET_B I *D sg13g2_dfrbpq_1
*I *3185:RESET_B I *D sg13g2_dfrbpq_1
*I *3240:RESET_B I *D sg13g2_dfrbpq_1
*I *3533:X O *D sg13g2_buf_1
*CAP
1 *3181:RESET_B 0.000256566
2 *3225:RESET_B 0
3 *3170:RESET_B 0
4 *3184:RESET_B 0.000673917
5 *3178:RESET_B 8.73365e-05
6 *3179:RESET_B 0
7 *3185:RESET_B 2.36489e-05
8 *3240:RESET_B 0.000555054
9 *3533:X 0.000492838
10 *627:109 0.000354787
11 *627:101 0.00102771
12 *627:84 0.00173832
13 *627:69 0.000745126
14 *627:63 0.000959796
15 *627:50 0.00045843
16 *627:30 0.00123683
17 *627:28 0.00270329
18 *627:16 0.0022891
19 *627:10 0.000758292
20 *3178:RESET_B *3012:A 0
21 *3181:RESET_B *3012:A 0.000451108
22 *3184:RESET_B *704:26 0
23 *3184:RESET_B *706:18 0
24 *627:10 *3533:A 0
25 *627:10 *630:12 7.0793e-05
26 *627:10 *631:12 7.33256e-05
27 *627:10 *631:65 2.83743e-05
28 *627:10 *704:58 0
29 *627:16 *2927:A 0
30 *627:16 *2928:A 0.000112826
31 *627:28 *2927:A 0.00122807
32 *627:28 *704:58 0
33 *627:69 *3012:A 0.00033687
34 *627:101 *629:55 0.00011101
35 *627:101 *704:26 0.00101352
36 *3008:B1 *627:28 0
37 *3009:A *627:30 8.00842e-05
38 *3009:B *627:30 0
39 *3065:S *627:28 0.000124824
40 *3179:D *627:30 0
41 *3180:D *627:28 1.54008e-05
42 *3180:D *627:63 0.000112008
43 *3226:CLK *627:63 0
44 *3311:D *3184:RESET_B 0.000286042
45 *3311:D *627:84 0.000738692
46 *6:14 *3184:RESET_B 0
47 *6:26 *627:101 0
48 *101:14 *627:69 0
49 *101:14 *627:84 0.000179234
50 *103:10 *627:63 0
51 *148:12 *627:109 7.34778e-05
52 *149:22 *627:109 0.000280512
53 *236:20 *627:16 7.92542e-05
54 *236:20 *627:28 0.00134919
55 *247:24 *627:28 0.000496884
56 *262:47 *627:28 0.000177894
57 *288:41 *627:10 0
58 *291:58 *627:10 0
59 *310:28 *627:28 0.00262214
60 *310:28 *627:63 0.00108896
61 *319:12 *3181:RESET_B 0.000466281
62 *319:12 *627:69 0.000336984
63 *319:14 *627:69 0.000179389
64 *319:14 *627:84 0
65 *319:81 *627:16 0
66 *344:91 *627:28 0
67 *346:54 *627:10 0
68 *347:10 *3184:RESET_B 0.00011101
69 *352:22 *627:28 0
70 *483:10 *3178:RESET_B 8.00842e-05
71 *510:10 *627:101 4.77425e-05
72 *544:22 *3184:RESET_B 0.000284891
73 *544:22 *627:84 0.00091787
74 *591:27 *627:28 0.000443946
75 *624:10 *627:10 0
*RES
1 *3533:X *627:10 44.0685 
2 *627:10 *627:16 42.266 
3 *627:16 *627:28 46.5637 
4 *627:28 *627:30 5.5105 
5 *627:30 *3240:RESET_B 25.1912 
6 *627:30 *3185:RESET_B 20.3502 
7 *627:28 *627:50 0.3193 
8 *627:50 *3179:RESET_B 20 
9 *627:50 *627:63 46.0152 
10 *627:63 *627:69 23.1106 
11 *627:69 *3178:RESET_B 40.8858 
12 *627:69 *627:84 5.8607 
13 *627:84 *3184:RESET_B 46.7415 
14 *627:84 *627:101 26.8083 
15 *627:101 *627:109 43.1724 
16 *627:109 *3170:RESET_B 20 
17 *627:101 *3225:RESET_B 20 
18 *627:63 *3181:RESET_B 23.1312 
*END

*D_NET *628 0.0218718
*CONN
*I *3326:D I *D sg13g2_dfrbpq_1
*I *3593:X O *D sg13g2_buf_1
*CAP
1 *3326:D 2.58084e-05
2 *3593:X 0
3 *628:30 0.00136183
4 *628:26 0.0032599
5 *628:22 0.00276107
6 *628:12 0.00325137
7 *628:10 0.00241418
8 *628:6 0
9 *628:26 *692:33 0
10 *628:30 *679:69 0.000933632
11 *17:13 *628:12 0
12 *240:18 *628:26 0
13 *243:47 *628:30 0
14 *257:22 *628:12 0
15 *259:12 *628:22 0
16 *265:20 *628:12 0
17 *328:20 *628:22 0.000363174
18 *339:12 *628:22 0.000524079
19 *352:26 *628:26 0
20 *416:20 *628:22 1.4965e-05
21 *417:18 *628:26 0.000449892
22 *417:28 *628:26 0.000235965
23 *422:28 *628:22 0
24 *422:32 *628:22 0
25 *519:30 *3326:D 4.77702e-05
26 *525:26 *628:12 0
27 *527:22 *628:12 0.00531543
28 *555:20 *628:12 0.000864995
29 *569:14 *628:30 0
30 *600:77 *628:26 0
31 *600:81 *628:30 0
32 *610:24 *3326:D 4.77702e-05
*RES
1 *3593:X *628:6 40 
2 *628:6 *628:10 40 
3 *628:10 *628:12 31.4974 
4 *628:12 *628:22 47.2615 
5 *628:22 *628:26 39.879 
6 *628:26 *628:30 32.2158 
7 *628:30 *3326:D 40.3193 
*END

*D_NET *629 0.0291048
*CONN
*I *3533:A I *D sg13g2_buf_1
*I *3532:A I *D sg13g2_buf_1
*I *3311:RESET_B I *D sg13g2_dfrbpq_1
*I *3369:RESET_B I *D sg13g2_dfrbpq_1
*I *3368:RESET_B I *D sg13g2_dfrbpq_1
*I *3226:RESET_B I *D sg13g2_dfrbpq_1
*I *3534:X O *D sg13g2_buf_1
*CAP
1 *3533:A 0.000455017
2 *3532:A 0
3 *3311:RESET_B 5.71562e-05
4 *3369:RESET_B 0.000275898
5 *3368:RESET_B 0.000568357
6 *3226:RESET_B 0.000543957
7 *3534:X 0.000485434
8 *629:104 0.000176371
9 *629:67 0.00159612
10 *629:61 0.000939002
11 *629:55 0.000637235
12 *629:47 0.000897323
13 *629:28 0.00138586
14 *629:22 0.0011217
15 *629:18 0.000731084
16 *629:12 0.00112065
17 *629:6 0.00126623
18 *3311:RESET_B *705:16 0.000112426
19 *3368:RESET_B *2941:A1 0.000445853
20 *3368:RESET_B *668:12 0
21 *3368:RESET_B *669:10 0.000265081
22 *3533:A *2928:A 0
23 *3533:A *3534:A 0.000144815
24 *3533:A *631:65 2.1204e-05
25 *3533:A *632:8 4.77425e-05
26 *3533:A *692:69 0
27 *629:6 *3534:A 0
28 *629:12 *639:14 0.00143687
29 *629:22 *648:14 0.00275702
30 *629:28 *708:33 0
31 *629:47 *701:10 0.000235774
32 *629:47 *703:56 0
33 *629:47 *708:33 0.000549457
34 *629:55 *708:33 0.00023547
35 *629:61 *708:18 0.000601853
36 *629:67 *669:10 0.000180603
37 *629:67 *705:16 0.000143491
38 *629:67 *708:18 0
39 *629:104 *647:31 8.00842e-05
40 *629:104 *692:69 8.01995e-05
41 *629:104 *704:58 0.000283647
42 *3146:A1 *629:47 0
43 *3173:RESET_B *3368:RESET_B 0
44 *3226:CLK *3226:RESET_B 0
45 *3361:RESET_B *629:67 0.000422101
46 *15:13 *3368:RESET_B 0.000711013
47 *15:13 *629:67 0.000954584
48 *18:25 *629:12 0.000272598
49 *68:50 *3369:RESET_B 0
50 *96:10 *3368:RESET_B 0
51 *149:14 *3369:RESET_B 0.00030506
52 *167:16 *629:18 0
53 *243:14 *629:67 0
54 *247:12 *629:104 0
55 *256:16 *629:22 0.00178594
56 *256:34 *629:67 0
57 *257:30 *629:12 0
58 *260:18 *3311:RESET_B 9.7025e-05
59 *260:18 *629:67 0.000143491
60 *288:41 *629:12 0
61 *291:119 *629:67 0
62 *347:10 *629:55 0
63 *348:10 *3368:RESET_B 0
64 *348:84 *629:55 0.000547934
65 *416:70 *3368:RESET_B 0
66 *417:40 *3369:RESET_B 1.53666e-05
67 *417:73 *629:28 0.00022985
68 *419:10 *629:12 0
69 *420:14 *629:12 0
70 *422:24 *629:28 0.000714315
71 *422:24 *629:55 0
72 *422:89 *629:12 7.31628e-05
73 *484:10 *629:28 0
74 *485:8 *629:28 0
75 *527:26 *629:61 0.000601499
76 *533:10 *629:12 0
77 *544:12 *629:22 0
78 *562:106 *629:28 0.000126358
79 *592:20 *629:12 0.000384846
80 *600:71 *629:28 0.00140072
81 *623:12 *629:12 7.92265e-05
82 *624:10 *3533:A 1.54282e-05
83 *626:94 *629:67 0.000234309
84 *627:10 *3533:A 0
85 *627:101 *629:55 0.00011101
*RES
1 *3534:X *629:6 20.3502 
2 *629:6 *629:12 31.2064 
3 *629:12 *629:18 40.5356 
4 *629:18 *629:22 32.7102 
5 *629:22 *629:28 47.2718 
6 *629:28 *3226:RESET_B 24.1789 
7 *629:28 *629:47 44.2127 
8 *629:47 *629:55 45.0573 
9 *629:55 *629:61 42.8222 
10 *629:61 *629:67 29.2288 
11 *629:67 *3368:RESET_B 47.0143 
12 *629:67 *3369:RESET_B 42.4823 
13 *629:61 *3311:RESET_B 20.7519 
14 *629:6 *629:104 41.8746 
15 *629:104 *3532:A 20 
16 *3534:X *3533:A 44.5011 
*END

*D_NET *630 0.0189955
*CONN
*I *3229:RESET_B I *D sg13g2_dfrbpq_1
*I *3230:RESET_B I *D sg13g2_dfrbpq_1
*I *3241:RESET_B I *D sg13g2_dfrbpq_1
*I *3228:RESET_B I *D sg13g2_dfrbpq_1
*I *3231:RESET_B I *D sg13g2_dfrbpq_1
*I *3180:RESET_B I *D sg13g2_dfrbpq_1
*I *3227:RESET_B I *D sg13g2_dfrbpq_1
*I *3242:RESET_B I *D sg13g2_dfrbpq_1
*I *3535:X O *D sg13g2_buf_1
*CAP
1 *3229:RESET_B 0.000102344
2 *3230:RESET_B 0.000177351
3 *3241:RESET_B 0.000517587
4 *3228:RESET_B 0
5 *3231:RESET_B 3.02081e-05
6 *3180:RESET_B 0
7 *3227:RESET_B 0.00017874
8 *3242:RESET_B 0
9 *3535:X 5.15046e-05
10 *630:111 0.000694938
11 *630:92 0.00113423
12 *630:80 0.0014908
13 *630:63 0.000934397
14 *630:53 0.000779736
15 *630:47 0.00124938
16 *630:37 0.00140619
17 *630:26 0.000416277
18 *630:16 0.00161464
19 *630:12 0.000844968
20 *3227:RESET_B *666:43 0.000126354
21 *630:16 *631:16 0
22 *630:26 *631:16 0
23 *630:37 *692:59 0.000285865
24 *630:37 *699:59 0.000442385
25 *630:47 *692:59 2.14736e-05
26 *630:47 *698:45 7.33256e-05
27 *630:53 *639:14 6.46382e-05
28 *630:63 *639:14 8.00842e-05
29 *630:63 *666:43 0.000339817
30 *630:92 *702:12 0
31 *630:92 *704:58 0
32 *3077:A1 *630:37 0
33 *3153:A *630:47 0
34 *19:19 *630:26 5.75864e-05
35 *76:10 *3229:RESET_B 0.00012881
36 *76:10 *630:47 0.000111567
37 *235:34 *3227:RESET_B 0.000127505
38 *235:34 *630:26 0.000126275
39 *235:34 *630:63 0.000371791
40 *247:32 *630:47 0
41 *247:32 *630:53 0
42 *257:30 *630:16 0
43 *290:43 *630:37 0
44 *291:73 *630:92 0
45 *322:18 *630:92 0
46 *323:10 *630:26 0.000126412
47 *328:84 *630:80 0.000400669
48 *343:8 *630:92 0.000127508
49 *344:8 *630:92 0.000239996
50 *346:54 *630:12 4.75166e-05
51 *351:71 *630:47 0.000530563
52 *351:71 *630:53 0.000819599
53 *385:40 *630:63 0.000661265
54 *435:18 *630:37 0.000124547
55 *435:22 *630:47 0
56 *436:71 *3230:RESET_B 0.000208035
57 *436:71 *3241:RESET_B 0.000498884
58 *530:14 *630:63 0.00034079
59 *591:62 *630:37 7.30101e-05
60 *600:24 *630:37 0.000177652
61 *607:14 *630:16 0.000486708
62 *607:14 *630:26 8.07528e-05
63 *624:14 *630:16 0
64 *627:10 *630:12 7.0793e-05
*RES
1 *3535:X *630:12 40.5407 
2 *630:12 *630:16 28.1061 
3 *630:16 *630:26 43.8316 
4 *630:26 *3242:RESET_B 20 
5 *630:16 *630:37 44.5526 
6 *630:37 *630:47 27.7044 
7 *630:47 *630:53 24.3466 
8 *630:53 *630:63 26.4066 
9 *630:63 *3227:RESET_B 42.163 
10 *630:63 *630:80 23.1312 
11 *630:80 *630:92 49.682 
12 *630:92 *3180:RESET_B 20 
13 *630:80 *3231:RESET_B 20.3502 
14 *630:53 *3228:RESET_B 20 
15 *630:47 *630:111 20 
16 *630:111 *3241:RESET_B 24.7792 
17 *630:111 *3230:RESET_B 21.751 
18 *630:37 *3229:RESET_B 20.9682 
*END

*D_NET *631 0.0106846
*CONN
*I *3535:A I *D sg13g2_buf_1
*I *3366:RESET_B I *D sg13g2_dfrbpq_1
*I *3243:RESET_B I *D sg13g2_dfrbpq_1
*I *3244:RESET_B I *D sg13g2_dfrbpq_1
*I *3536:X O *D sg13g2_buf_1
*CAP
1 *3535:A 0
2 *3366:RESET_B 0.000413517
3 *3243:RESET_B 6.33576e-05
4 *3244:RESET_B 0
5 *3536:X 0
6 *631:65 0.00022147
7 *631:33 0.000577229
8 *631:26 0.000846171
9 *631:16 0.00224112
10 *631:12 0.00136454
11 *631:4 0.000291411
12 *631:12 *2928:A 4.75166e-05
13 *631:65 *2928:A 0.000129177
14 *631:65 *632:14 0.000234224
15 *3533:A *631:65 2.1204e-05
16 *3628:ext_trim[3] *631:26 0
17 *19:19 *631:16 0
18 *76:12 *631:26 0.000609733
19 *166:10 *3366:RESET_B 0.000157261
20 *166:10 *631:33 0.000234726
21 *237:10 *631:65 0.000234224
22 *241:10 *631:16 0
23 *246:100 *631:26 1.54008e-05
24 *291:58 *631:12 0
25 *293:41 *631:26 0
26 *293:41 *631:33 0
27 *299:10 *3366:RESET_B 0.000817816
28 *299:10 *631:26 0.00118854
29 *299:10 *631:33 0.000393913
30 *319:81 *631:65 0
31 *328:92 *3366:RESET_B 0
32 *328:92 *631:26 0
33 *433:8 *631:26 0.000160494
34 *433:16 *631:26 0.00012874
35 *435:10 *3366:RESET_B 0
36 *498:17 *3366:RESET_B 0
37 *525:26 *631:16 7.95299e-05
38 *583:20 *631:16 0
39 *583:195 *631:16 0
40 *625:20 *631:26 0.000111568
41 *627:10 *631:12 7.33256e-05
42 *627:10 *631:65 2.83743e-05
43 *630:16 *631:16 0
44 *630:26 *631:16 0
*RES
1 *3536:X *631:4 20 
2 *631:4 *631:12 40.6695 
3 *631:12 *631:16 32.4321 
4 *631:16 *631:26 30.3 
5 *631:26 *3244:RESET_B 20 
6 *631:16 *631:33 1.8334 
7 *631:33 *3243:RESET_B 40.5356 
8 *631:33 *3366:RESET_B 45.2118 
9 *631:4 *631:65 42.9741 
10 *631:65 *3535:A 20 
*END

*D_NET *632 0.0311875
*CONN
*I *3362:RESET_B I *D sg13g2_dfrbpq_1
*I *3530:A I *D sg13g2_buf_1
*I *3534:A I *D sg13g2_buf_1
*I *3536:A I *D sg13g2_buf_1
*I *3537:X O *D sg13g2_buf_1
*CAP
1 *3362:RESET_B 0.0009115
2 *3530:A 0
3 *3534:A 0.000301317
4 *3536:A 0
5 *3537:X 0.000705517
6 *632:60 0.00330025
7 *632:54 0.00432191
8 *632:52 0.00205374
9 *632:46 0.000629873
10 *632:14 0.000227951
11 *632:8 0.000725491
12 *3362:RESET_B *649:16 0.000951561
13 *3534:A *3545:A 0
14 *632:8 *641:16 0
15 *632:54 *705:31 0
16 *632:60 *649:16 0
17 *3016:B *632:46 0
18 *3357:RESET_B *632:60 0
19 *3359:RESET_B *3362:RESET_B 1.54008e-05
20 *3360:CLK *632:60 4.76973e-05
21 *3533:A *3534:A 0.000144815
22 *3533:A *632:8 4.77425e-05
23 *3551:A *3534:A 0
24 *3551:A *632:8 0
25 *3582:A *632:46 0
26 *8:9 *632:60 0
27 *8:13 *632:46 0.00125716
28 *90:14 *3362:RESET_B 0
29 *90:14 *632:60 1.54008e-05
30 *108:8 *632:60 0.000240377
31 *237:10 *632:14 0
32 *258:39 *632:46 0.000982067
33 *258:47 *632:60 8.00842e-05
34 *259:22 *632:60 0
35 *261:16 *632:54 0.00456079
36 *267:25 *632:54 0.00418808
37 *269:14 *632:54 0
38 *291:58 *632:14 0
39 *318:48 *632:60 0
40 *351:20 *3362:RESET_B 0
41 *417:79 *632:54 0.0021044
42 *504:10 *632:60 0
43 *507:8 *632:60 0
44 *508:6 *632:60 0
45 *528:22 *632:60 0.000432821
46 *555:12 *3534:A 0
47 *555:12 *632:8 0
48 *623:46 *632:60 0.00133763
49 *623:50 *3362:RESET_B 0.000403782
50 *623:60 *3362:RESET_B 0.000595483
51 *624:40 *632:60 0.00037042
52 *625:41 *632:60 0
53 *629:6 *3534:A 0
54 *631:65 *632:14 0.000234224
*RES
1 *3537:X *632:8 22.2454 
2 *632:8 *632:14 42.0806 
3 *632:14 *3536:A 20 
4 *632:8 *3534:A 22.9664 
5 *632:8 *3530:A 20 
6 *3537:X *632:46 48.24 
7 *632:46 *632:52 40.9682 
8 *632:52 *632:54 33.2278 
9 *632:54 *632:60 42.4908 
10 *632:60 *3362:RESET_B 29.5378 
*END

*D_NET *633 0.00878251
*CONN
*I *3219:RESET_B I *D sg13g2_dfrbpq_1
*I *3349:RESET_B I *D sg13g2_dfrbpq_1
*I *3314:RESET_B I *D sg13g2_dfrbpq_1
*I *3288:RESET_B I *D sg13g2_dfrbpq_1
*I *3289:RESET_B I *D sg13g2_dfrbpq_1
*I *3315:RESET_B I *D sg13g2_dfrbpq_1
*I *3218:RESET_B I *D sg13g2_dfrbpq_1
*I *3348:RESET_B I *D sg13g2_dfrbpq_1
*I *3538:X O *D sg13g2_buf_1
*CAP
1 *3219:RESET_B 0.000514669
2 *3349:RESET_B 0
3 *3314:RESET_B 0.000141965
4 *3288:RESET_B 0.000149015
5 *3289:RESET_B 9.42726e-05
6 *3315:RESET_B 0.000115187
7 *3218:RESET_B 0.000427069
8 *3348:RESET_B 0.000256095
9 *3538:X 0.000117278
10 *633:60 0.000818049
11 *633:42 0.000310669
12 *633:38 0.00132091
13 *633:34 0.00073878
14 *633:30 0.000775235
15 *633:12 0.000950696
16 *633:8 0.000599231
17 *3218:RESET_B *634:18 0
18 *3219:RESET_B *2989:A1 0
19 *3315:RESET_B *2977:A1 0
20 *633:42 *659:12 0
21 *633:60 *659:12 0
22 *2989:S0 *3219:RESET_B 4.77425e-05
23 *2989:A0 *3219:RESET_B 0
24 *3124:S *633:34 0
25 *3124:S *633:38 0
26 *3162:B *3218:RESET_B 0
27 *3162:B *633:8 0
28 *3163:B *3219:RESET_B 0.000273509
29 *3163:B *633:34 0
30 *3163:B *633:38 0
31 *3218:CLK *633:8 0.000176484
32 *3288:D *3288:RESET_B 0
33 *3288:D *3314:RESET_B 0
34 *3288:CLK *3288:RESET_B 0
35 *3288:CLK *3314:RESET_B 0
36 *3315:CLK *3315:RESET_B 0
37 *3315:CLK *633:38 0
38 *3348:D *3348:RESET_B 0
39 *56:12 *3289:RESET_B 0
40 *56:12 *3315:RESET_B 0
41 *56:12 *633:30 0
42 *212:10 *633:38 0
43 *299:71 *633:12 0
44 *299:77 *3348:RESET_B 0
45 *325:16 *633:60 0
46 *325:18 *633:42 0
47 *325:18 *633:60 0
48 *327:22 *3219:RESET_B 0
49 *405:16 *633:12 0
50 *405:16 *633:30 0
51 *511:10 *3219:RESET_B 0
52 *511:10 *633:30 0
53 *513:8 *3348:RESET_B 0.000111828
54 *538:10 *633:60 0
55 *594:33 *3219:RESET_B 0.000501874
56 *594:33 *633:30 0.000341949
*RES
1 *3538:X *633:8 41.1845 
2 *633:8 *633:12 22.0806 
3 *633:12 *3348:RESET_B 22.6162 
4 *633:12 *3218:RESET_B 23.5638 
5 *633:8 *633:30 2.575 
6 *633:30 *633:34 20.5356 
7 *633:34 *633:38 25.7963 
8 *633:38 *633:42 21.0918 
9 *633:42 *3315:RESET_B 21.1845 
10 *633:42 *3289:RESET_B 21.1845 
11 *633:38 *633:60 26.0358 
12 *633:60 *3288:RESET_B 21.5347 
13 *633:60 *3314:RESET_B 21.5347 
14 *633:34 *3349:RESET_B 20 
15 *633:30 *3219:RESET_B 45.8916 
*END

*D_NET *634 0.0170691
*CONN
*I *3628:resetb I *D multimode_dll
*I *3215:RESET_B I *D sg13g2_dfrbpq_1
*I *3214:RESET_B I *D sg13g2_dfrbpq_1
*I *3212:RESET_B I *D sg13g2_dfrbpq_1
*I *3211:RESET_B I *D sg13g2_dfrbpq_1
*I *3213:RESET_B I *D sg13g2_dfrbpq_1
*I *3285:RESET_B I *D sg13g2_dfrbpq_1
*I *3538:A I *D sg13g2_buf_1
*I *3539:X O *D sg13g2_buf_1
*CAP
1 *3628:resetb 0.000346924
2 *3215:RESET_B 0.000188715
3 *3214:RESET_B 7.55103e-05
4 *3212:RESET_B 0
5 *3211:RESET_B 0.000217053
6 *3213:RESET_B 0
7 *3285:RESET_B 0.000428519
8 *3538:A 3.04198e-05
9 *3539:X 0.000445419
10 *634:71 0.000702315
11 *634:62 0.000714485
12 *634:58 0.000850711
13 *634:54 0.00147081
14 *634:31 0.00183979
15 *634:18 0.00131735
16 *634:10 0.000958709
17 *634:8 0.000445419
18 *3285:RESET_B *2997:B2 0
19 *3285:RESET_B *654:10 0
20 *634:8 *637:89 0
21 *634:31 *637:10 0
22 *634:54 *2997:B2 0
23 *634:54 *637:10 0.000922402
24 *3050:A1 *3215:RESET_B 0
25 *3050:S *3215:RESET_B 0
26 *3120:A0 *3285:RESET_B 0.000176484
27 *3162:B *3538:A 4.77425e-05
28 *3211:CLK *3211:RESET_B 0
29 *3211:CLK *634:71 0
30 *3212:D *3211:RESET_B 0
31 *3212:D *634:71 0
32 *3218:RESET_B *634:18 0
33 *3218:D *634:18 0
34 *3502:A *3285:RESET_B 0
35 *3622:D *3285:RESET_B 0.000143351
36 *3622:D *634:54 9.71404e-05
37 *3622:SEL *3285:RESET_B 1.40176e-05
38 *3628:clk0_phase_sel[0] *634:71 0
39 *3628:clk1_phase_sel[0] *3211:RESET_B 0
40 *3628:clk1_phase_sel[0] *634:62 0.000370419
41 *3628:clk1_phase_sel[0] *634:71 0
42 *3628:enable *3628:resetb 0
43 *3628:f_clk1_divider[4] *634:54 0.000180682
44 *3628:f_clk1_divider[4] *634:58 0
45 *3628:osc *3628:resetb 0
46 *7:47 *3628:resetb 0
47 *250:57 *634:54 0.000447597
48 *251:12 *634:54 0
49 *282:23 *634:31 0.00140757
50 *283:19 *3214:RESET_B 0
51 *283:19 *634:54 0
52 *283:19 *634:58 0
53 *326:10 *634:8 0
54 *330:39 *634:71 0
55 *403:8 *3214:RESET_B 0.00012816
56 *403:8 *634:58 0.000394258
57 *405:14 *3215:RESET_B 0
58 *405:16 *634:18 0
59 *405:16 *634:31 0
60 *406:10 *634:8 0
61 *407:16 *634:8 0
62 *584:84 *634:31 0
63 *594:63 *634:62 0
64 *595:18 *634:18 0.000394566
65 *595:18 *634:31 0.00119378
66 *595:31 *634:31 0.00111874
67 *595:41 *634:54 0
68 *599:81 *634:8 0
*RES
1 *3539:X *634:8 44.0582 
2 *634:8 *634:10 20 
3 *634:10 *634:18 25.9637 
4 *634:18 *3538:A 40.3193 
5 *634:18 *634:31 32.2158 
6 *634:31 *3285:RESET_B 24.6144 
7 *634:31 *634:54 28.8786 
8 *634:54 *634:58 4.8719 
9 *634:58 *634:62 22.4823 
10 *634:62 *3213:RESET_B 20 
11 *634:62 *634:71 4.569 
12 *634:71 *3211:RESET_B 22.0956 
13 *634:71 *3212:RESET_B 20 
14 *634:58 *3214:RESET_B 40.9167 
15 *634:54 *3215:RESET_B 41.4008 
16 *634:10 *3628:resetb 3.48397 
*END

*D_NET *635 0.0117081
*CONN
*I *3200:RESET_B I *D sg13g2_dfrbpq_1
*I *3201:RESET_B I *D sg13g2_dfrbpq_1
*I *3205:RESET_B I *D sg13g2_dfrbpq_1
*I *3282:RESET_B I *D sg13g2_dfrbpq_1
*I *3223:RESET_B I *D sg13g2_dfrbpq_1
*I *3284:RESET_B I *D sg13g2_dfrbpq_1
*I *3209:RESET_B I *D sg13g2_dfrbpq_1
*I *3221:RESET_B I *D sg13g2_dfrbpq_1
*I *3540:X O *D sg13g2_buf_1
*CAP
1 *3200:RESET_B 6.30383e-05
2 *3201:RESET_B 0.000449457
3 *3205:RESET_B 0.000189779
4 *3282:RESET_B 0
5 *3223:RESET_B 0
6 *3284:RESET_B 0
7 *3209:RESET_B 0
8 *3221:RESET_B 4.73699e-05
9 *3540:X 0
10 *635:73 0.00104477
11 *635:66 0.000998932
12 *635:58 0.00164862
13 *635:54 0.000460665
14 *635:33 0.000471533
15 *635:25 0.000959555
16 *635:17 0.00071709
17 *635:8 0.000466931
18 *635:4 0.000343966
19 *635:54 *637:76 0.000876832
20 *635:58 *637:76 0
21 *635:66 *637:76 0
22 *3040:A0 *3205:RESET_B 0
23 *3117:A0 *635:66 0.000306781
24 *3117:A1 *635:66 0
25 *3118:S *635:66 0
26 *3119:A0 *635:25 0.000232594
27 *3201:D *3201:RESET_B 0
28 *3208:CLK *635:33 0
29 *3209:CLK *635:25 0
30 *3209:CLK *635:33 0
31 *3282:D *635:66 0.000824476
32 *3282:CLK *635:66 0
33 *3283:D *635:66 0
34 *3284:CLK *635:17 0
35 *3284:CLK *635:58 0
36 *3284:CLK *635:66 0
37 *207:8 *635:33 0
38 *324:12 *635:33 0
39 *329:10 *3201:RESET_B 0
40 *329:10 *635:73 0
41 *330:22 *635:54 0.000884536
42 *333:22 *635:8 0
43 *337:30 *635:66 0
44 *337:30 *635:73 0
45 *392:14 *3201:RESET_B 0.000539073
46 *392:14 *635:73 0.000182121
47 *394:18 *635:33 0
48 *605:83 *3201:RESET_B 0
49 *605:89 *3201:RESET_B 0
*RES
1 *3540:X *635:4 20 
2 *635:4 *635:8 1.751 
3 *635:8 *3221:RESET_B 20.5974 
4 *635:8 *635:17 2.266 
5 *635:17 *635:25 4.7998 
6 *635:25 *635:33 45.062 
7 *635:33 *3209:RESET_B 20 
8 *635:25 *3284:RESET_B 20 
9 *635:17 *3223:RESET_B 20 
10 *635:4 *635:54 44.0582 
11 *635:54 *635:58 22.0497 
12 *635:58 *635:66 30.3515 
13 *635:66 *3282:RESET_B 20 
14 *635:58 *635:73 4.3054 
15 *635:73 *3205:RESET_B 41.6171 
16 *635:73 *3201:RESET_B 43.3061 
17 *635:54 *3200:RESET_B 20.5356 
*END

*D_NET *636 0.0120347
*CONN
*I *3198:RESET_B I *D sg13g2_dfrbpq_1
*I *3199:RESET_B I *D sg13g2_dfrbpq_1
*I *3206:RESET_B I *D sg13g2_dfrbpq_1
*I *3220:RESET_B I *D sg13g2_dfrbpq_1
*I *3222:RESET_B I *D sg13g2_dfrbpq_1
*I *3208:RESET_B I *D sg13g2_dfrbpq_1
*I *3207:RESET_B I *D sg13g2_dfrbpq_1
*I *3210:RESET_B I *D sg13g2_dfrbpq_1
*I *3541:X O *D sg13g2_buf_1
*CAP
1 *3198:RESET_B 0
2 *3199:RESET_B 0.000388472
3 *3206:RESET_B 0
4 *3220:RESET_B 0
5 *3222:RESET_B 0
6 *3208:RESET_B 0.000374085
7 *3207:RESET_B 0
8 *3210:RESET_B 0.000168367
9 *3541:X 0.000162096
10 *636:105 0.000201459
11 *636:76 0.000545023
12 *636:61 0.00102115
13 *636:48 0.00103993
14 *636:39 0.000536694
15 *636:26 0.000990267
16 *636:18 0.000678816
17 *636:14 0.00106614
18 *636:8 0.000837329
19 *636:8 *3541:A 0
20 *3043:A0 *3208:RESET_B 0
21 *3043:A0 *636:48 0
22 *3044:A0 *3208:RESET_B 0
23 *3044:S *3208:RESET_B 0
24 *3044:S *636:61 0
25 *3045:A0 *3210:RESET_B 4.77702e-05
26 *3045:A0 *636:26 0
27 *3055:A0 *636:76 0
28 *3198:D *636:105 0
29 *3198:CLK *636:14 4.77425e-05
30 *3207:CLK *636:48 0
31 *3207:CLK *636:61 0.000596556
32 *3220:D *636:76 0
33 *3628:clk0_phase_sel[2] *636:48 0
34 *129:8 *636:39 0
35 *282:23 *3199:RESET_B 0.000372885
36 *282:23 *636:14 0.000555322
37 *324:12 *636:39 0
38 *326:10 *636:105 0.000553247
39 *329:10 *3199:RESET_B 0
40 *329:10 *636:14 0
41 *329:10 *636:76 0
42 *330:57 *636:14 0.000305175
43 *394:18 *636:26 4.77425e-05
44 *394:18 *636:39 0
45 *394:31 *636:26 9.67976e-05
46 *396:8 *636:39 0
47 *396:25 *636:48 0
48 *397:20 *3199:RESET_B 0.00030506
49 *398:31 *3210:RESET_B 0.000225969
50 *398:31 *636:18 0
51 *398:31 *636:26 0
52 *399:10 *3208:RESET_B 0.000241983
53 *412:18 *636:76 0.000395897
54 *596:10 *636:8 0
55 *596:14 *636:18 0
56 *596:14 *636:26 0
57 *596:23 *3210:RESET_B 0
58 *596:23 *636:26 0.000232709
59 *597:8 *636:76 0
60 *599:81 *636:105 0
*RES
1 *3541:X *636:8 21.751 
2 *636:8 *636:14 25.0573 
3 *636:14 *636:18 21.8334 
4 *636:18 *636:26 4.7998 
5 *636:26 *3210:RESET_B 21.8334 
6 *636:26 *636:39 43.811 
7 *636:39 *3207:RESET_B 20 
8 *636:39 *636:48 2.369 
9 *636:48 *3208:RESET_B 23.914 
10 *636:48 *636:61 5.2736 
11 *636:61 *3222:RESET_B 20 
12 *636:61 *636:76 44.1816 
13 *636:76 *3220:RESET_B 20 
14 *636:18 *3206:RESET_B 20 
15 *636:14 *3199:RESET_B 44.0994 
16 *636:8 *636:105 42.8943 
17 *636:105 *3198:RESET_B 20 
*END

*D_NET *637 0.0283427
*CONN
*I *3539:A I *D sg13g2_buf_1
*I *3283:RESET_B I *D sg13g2_dfrbpq_1
*I *3540:A I *D sg13g2_buf_1
*I *3541:A I *D sg13g2_buf_1
*I *3287:RESET_B I *D sg13g2_dfrbpq_1
*I *3286:RESET_B I *D sg13g2_dfrbpq_1
*I *3542:X O *D sg13g2_buf_1
*CAP
1 *3539:A 0
2 *3283:RESET_B 0
3 *3540:A 5.74818e-05
4 *3541:A 0.00023373
5 *3287:RESET_B 0.000247479
6 *3286:RESET_B 0.000119127
7 *3542:X 0
8 *637:89 0.000179587
9 *637:76 0.00134516
10 *637:55 0.00313646
11 *637:40 0.0029851
12 *637:16 0.00116192
13 *637:10 0.00391837
14 *637:4 0.0022851
15 *637:10 *3542:A 0
16 *637:16 *652:18 0
17 *637:76 *656:8 0
18 *3036:S *637:76 0
19 *3050:S *637:16 0
20 *3117:A1 *637:76 0
21 *3287:CLK *3287:RESET_B 0
22 *3503:A *637:10 0
23 *3564:A *637:16 0
24 *3626:SEL *637:76 0.000213831
25 *3628:clk0_phase_sel[3] *637:55 0.000128248
26 *3628:f_clk1_divider[4] *637:40 0.000286322
27 *250:8 *637:10 0
28 *270:44 *637:10 0.00284524
29 *283:9 *3541:A 0.000371552
30 *283:32 *637:40 7.53228e-05
31 *283:32 *637:55 0
32 *326:10 *637:10 0
33 *326:10 *637:55 0.000608025
34 *326:10 *637:76 0.00114241
35 *329:24 *637:16 0
36 *329:26 *3287:RESET_B 0
37 *329:26 *637:16 0
38 *330:22 *637:55 0.00189234
39 *330:65 *637:40 0
40 *330:65 *637:55 0.00012816
41 *337:39 *637:76 0
42 *353:27 *637:10 0.000112244
43 *357:14 *3286:RESET_B 6.16032e-06
44 *357:14 *637:16 0
45 *359:19 *3287:RESET_B 0
46 *405:8 *637:40 0.00103649
47 *406:10 *637:89 0
48 *407:16 *637:89 0.000341619
49 *409:25 *637:10 0
50 *411:10 *637:76 0.000175693
51 *413:8 *637:76 4.77089e-05
52 *480:10 *637:76 7.86681e-05
53 *584:59 *637:10 0
54 *584:72 *637:10 0
55 *584:84 *637:10 0
56 *594:14 *637:10 0.0012018
57 *595:41 *637:10 0.000182121
58 *634:8 *637:89 0
59 *634:31 *637:10 0
60 *634:54 *637:10 0.000922402
61 *635:54 *637:76 0.000876832
62 *635:58 *637:76 0
63 *635:66 *637:76 0
64 *636:8 *3541:A 0
*RES
1 *3542:X *637:4 20 
2 *637:4 *637:10 45.5749 
3 *637:10 *637:16 27.2203 
4 *637:16 *3286:RESET_B 21.3493 
5 *637:16 *3287:RESET_B 22.3943 
6 *637:10 *637:40 10.4854 
7 *637:40 *3541:A 42.4823 
8 *637:40 *637:55 17.8293 
9 *637:55 *3540:A 40.5356 
10 *637:55 *637:76 35.5015 
11 *637:76 *3283:RESET_B 20 
12 *637:4 *637:89 42.1218 
13 *637:89 *3539:A 20 
*END

*D_NET *638 0.0184751
*CONN
*I *3190:RESET_B I *D sg13g2_dfrbpq_1
*I *3197:RESET_B I *D sg13g2_dfrbpq_1
*I *3189:RESET_B I *D sg13g2_dfrbpq_1
*I *3196:RESET_B I *D sg13g2_dfrbpq_1
*I *3188:RESET_B I *D sg13g2_dfrbpq_1
*I *3187:RESET_B I *D sg13g2_dfrbpq_1
*I *3186:RESET_B I *D sg13g2_dfrbpq_1
*I *3358:RESET_B I *D sg13g2_dfrbpq_1
*I *3543:X O *D sg13g2_buf_1
*CAP
1 *3190:RESET_B 0
2 *3197:RESET_B 3.03288e-05
3 *3189:RESET_B 0.000270603
4 *3196:RESET_B 2.54007e-05
5 *3188:RESET_B 3.53335e-05
6 *3187:RESET_B 0.000154497
7 *3186:RESET_B 2.84589e-05
8 *3358:RESET_B 0
9 *3543:X 0.000243411
10 *638:99 0.00195412
11 *638:80 0.00220395
12 *638:69 0.000530995
13 *638:58 0.000450466
14 *638:47 0.00061473
15 *638:36 0.000669853
16 *638:22 0.000262776
17 *638:14 0.000426426
18 *638:10 0.000698736
19 *3186:CLK *638:36 0.000874843
20 *3186:CLK *638:47 0.00023464
21 *3189:CLK *3189:RESET_B 0
22 *3196:D *3189:RESET_B 0
23 *3197:CLK *638:80 0.000962786
24 *3197:CLK *638:99 0.000502791
25 *3358:D *638:22 0
26 *3358:CLK *638:10 0
27 *3358:CLK *638:22 0
28 *3454:A *638:47 0
29 *3454:A *638:58 0
30 *3628:f_osc_multiply_factor[1] *3187:RESET_B 0.000241398
31 *3628:f_osc_multiply_factor[4] *3187:RESET_B 0
32 *147:8 *638:99 0.000128247
33 *298:112 *3197:RESET_B 4.77425e-05
34 *299:10 *638:14 0
35 *299:10 *638:22 0
36 *299:10 *638:36 0
37 *299:10 *638:47 0
38 *320:14 *638:10 0.000176442
39 *320:27 *638:14 0.000341534
40 *320:81 *638:99 0.000768781
41 *321:8 *3188:RESET_B 1.54008e-05
42 *321:19 *638:47 0.00026599
43 *321:37 *638:47 0.000106064
44 *321:37 *638:58 0.000501875
45 *321:46 *638:58 0.000959232
46 *321:46 *638:69 0.000235075
47 *321:46 *638:80 0.000290072
48 *323:10 *638:36 0
49 *367:16 *638:58 0.000395878
50 *367:16 *638:69 0.000215107
51 *367:16 *638:80 0.00123176
52 *367:16 *638:99 0.000748256
53 *414:18 *638:22 7.57164e-05
54 *414:18 *638:58 0
55 *426:55 *638:99 0
56 *481:33 *638:99 0
57 *599:36 *638:99 0
58 *599:42 *638:99 0.000555408
59 *599:48 *638:99 0
60 *599:61 *638:99 0
*RES
1 *3543:X *638:10 42.4308 
2 *638:10 *638:14 21.8334 
3 *638:14 *638:22 42.7089 
4 *638:22 *3358:RESET_B 20 
5 *638:14 *3186:RESET_B 20.2313 
6 *638:10 *638:36 4.5526 
7 *638:36 *3187:RESET_B 41.6171 
8 *638:36 *638:47 2.8222 
9 *638:47 *3188:RESET_B 40.3193 
10 *638:47 *638:58 6.7774 
11 *638:58 *3196:RESET_B 40.3193 
12 *638:58 *638:69 1.0918 
13 *638:69 *3189:RESET_B 42.4823 
14 *638:69 *638:80 5.7886 
15 *638:80 *3197:RESET_B 40.3193 
16 *638:80 *638:99 40.3425 
17 *638:99 *3190:RESET_B 20 
*END

*D_NET *639 0.0331269
*CONN
*I *3327:D I *D sg13g2_dfrbpq_1
*I *3594:X O *D sg13g2_buf_1
*CAP
1 *3327:D 0
2 *3594:X 2.81962e-05
3 *639:44 0.000138625
4 *639:38 0.00186233
5 *639:32 0.00215819
6 *639:22 0.00205873
7 *639:14 0.00304842
8 *639:8 0.00145238
9 *639:14 *708:33 0.000500734
10 *639:22 *699:18 0.000496586
11 *639:38 *2940:A_N 0
12 *639:38 *674:14 0
13 *639:44 *690:20 0
14 *3000:B *639:38 0.00028396
15 *3228:CLK *639:14 0
16 *15:9 *639:38 0.00166746
17 *18:9 *639:44 0
18 *108:14 *639:32 0.000551025
19 *154:12 *639:14 0.00224776
20 *243:14 *639:38 0.00208829
21 *291:99 *639:22 0
22 *291:125 *639:32 0
23 *297:10 *639:22 0.00288475
24 *308:27 *639:22 0.00202416
25 *356:20 *639:32 0.000762149
26 *385:52 *639:22 0.000647442
27 *418:29 *639:14 0.000531194
28 *419:10 *639:14 0
29 *422:8 *639:14 0
30 *486:16 *639:14 0
31 *508:6 *639:32 0.000304569
32 *562:14 *639:38 0.00118098
33 *562:63 *639:32 0.000232181
34 *562:63 *639:38 0.000762976
35 *592:20 *639:14 0
36 *600:39 *639:14 0
37 *600:47 *639:14 0
38 *610:8 *639:38 0.000288184
39 *610:20 *639:38 0.000437366
40 *623:18 *639:22 0.00283337
41 *623:36 *639:22 7.33256e-05
42 *629:12 *639:14 0.00143687
43 *630:53 *639:14 6.46382e-05
44 *630:63 *639:14 8.00842e-05
*RES
1 *3594:X *639:8 40.3193 
2 *639:8 *639:14 38.0044 
3 *639:14 *639:22 46.4195 
4 *639:22 *639:32 46.18 
5 *639:32 *639:38 42.8557 
6 *639:38 *639:44 40.8446 
7 *639:44 *3327:D 20 
*END

*D_NET *640 0.00998625
*CONN
*I *3193:RESET_B I *D sg13g2_dfrbpq_1
*I *3194:RESET_B I *D sg13g2_dfrbpq_1
*I *3224:RESET_B I *D sg13g2_dfrbpq_1
*I *3195:RESET_B I *D sg13g2_dfrbpq_1
*I *3544:X O *D sg13g2_buf_1
*CAP
1 *3193:RESET_B 0.000415176
2 *3194:RESET_B 3.43728e-05
3 *3224:RESET_B 0.000184178
4 *3195:RESET_B 0.000101954
5 *3544:X 0.00034484
6 *640:32 0.00149346
7 *640:21 0.00140808
8 *640:8 0.000626785
9 *3195:D *3195:RESET_B 0
10 *3195:D *640:8 0
11 *3195:CLK *3224:RESET_B 0
12 *332:40 *3193:RESET_B 0
13 *332:48 *3193:RESET_B 0.000480193
14 *332:48 *640:32 0.00103593
15 *367:8 *3195:RESET_B 0.000181608
16 *367:8 *640:21 0.000607524
17 *367:8 *640:32 0.000395897
18 *413:49 *3193:RESET_B 0.000982482
19 *413:49 *640:32 0.00151662
20 *413:57 *640:8 0.000177157
21 *413:57 *640:32 0
22 *414:18 *3195:RESET_B 0
23 *414:18 *640:21 0
24 *481:27 *3193:RESET_B 0
25 *502:13 *3193:RESET_B 0
26 *502:13 *640:32 0
*RES
1 *3544:X *640:8 43.1312 
2 *640:8 *3195:RESET_B 41.1639 
3 *640:8 *640:21 2.8222 
4 *640:21 *3224:RESET_B 41.6171 
5 *640:21 *640:32 14.6878 
6 *640:32 *3194:RESET_B 40.2313 
7 *640:32 *3193:RESET_B 46.1697 
*END

*D_NET *641 0.0747033
*CONN
*I *3537:A I *D sg13g2_buf_1
*I *3543:A I *D sg13g2_buf_1
*I *3544:A I *D sg13g2_buf_1
*I *3542:A I *D sg13g2_buf_1
*I *3528:A I *D sg13g2_buf_1
*I *3545:X O *D sg13g2_buf_1
*CAP
1 *3537:A 2.87919e-05
2 *3543:A 2.77263e-05
3 *3544:A 0.00073838
4 *3542:A 0.00027803
5 *3528:A 0.000883748
6 *3545:X 6.19239e-05
7 *641:130 0.00128803
8 *641:118 0.00223142
9 *641:112 0.00216934
10 *641:104 0.00188391
11 *641:89 0.00172836
12 *641:85 0.00280139
13 *641:79 0.00140897
14 *641:73 0.000682526
15 *641:50 0.00127923
16 *641:42 0.000809009
17 *641:36 0.00103813
18 *641:34 0.00129031
19 *641:30 0.00905375
20 *641:20 0.0108678
21 *641:16 0.00183365
22 *641:10 0.000182178
23 *641:8 6.19239e-05
24 uo_out[3] *3528:A 0
25 uo_out[4] *3528:A 0
26 *3292:D *3528:A 1.54285e-05
27 *3332:D *641:50 0.000143351
28 *3551:A *641:16 0
29 *3628:f_osc_multiply_factor[0] *641:118 0.00109573
30 *14:13 *641:30 0
31 *14:17 *641:20 0.00155963
32 *18:19 *641:20 0
33 *20:13 *641:30 0
34 *20:21 *641:20 0
35 *25:26 *3528:A 0
36 *26:18 *3528:A 0.000242423
37 *47:16 *641:34 0
38 *109:10 *641:112 0.00011101
39 *139:10 *641:89 0.000342145
40 *241:20 *641:30 0.00548454
41 *241:26 *641:42 0
42 *254:22 *641:42 0.000510202
43 *254:22 *641:73 0.000937464
44 *258:26 *641:8 0.000342449
45 *270:16 *641:30 0
46 *270:16 *641:104 0
47 *270:38 *641:34 0
48 *270:44 *641:89 0
49 *280:14 *3528:A 0
50 *280:14 *641:50 0.000339336
51 *290:13 *3544:A 0
52 *290:13 *641:130 0
53 *291:28 *641:118 0
54 *293:22 *641:30 2.51717e-05
55 *294:26 *3528:A 0.000492764
56 *298:12 *641:104 0
57 *299:22 *641:34 0
58 *299:39 *641:73 0.000608486
59 *299:54 *641:73 0.000265575
60 *299:54 *641:85 0.000823472
61 *313:8 *641:118 0
62 *322:10 *641:118 0
63 *323:10 *641:112 0
64 *328:20 *641:34 0.00108102
65 *328:32 *641:34 0
66 *328:71 *641:85 0.000144542
67 *339:12 *641:34 0
68 *339:40 *641:79 0
69 *346:50 *641:8 0.00034162
70 *353:27 *3542:A 7.98582e-05
71 *355:14 *641:50 0.000143351
72 *376:34 *3528:A 0
73 *385:22 *641:130 0.000342034
74 *385:28 *641:118 0
75 *385:34 *641:112 0.000979709
76 *406:10 *3542:A 0.000144542
77 *409:31 *3542:A 0
78 *426:22 *641:118 0.00147196
79 *436:36 *641:85 0
80 *436:38 *641:85 0
81 *443:40 *641:34 0
82 *500:15 *641:130 0
83 *560:30 *3528:A 0.000335039
84 *567:12 *641:50 0.00119334
85 *580:40 *641:42 0.00110269
86 *580:40 *641:73 0.000537829
87 *584:51 *3528:A 0.000809772
88 *584:57 *641:73 0
89 *584:59 *641:89 0.00452994
90 *586:31 *641:42 0
91 *589:62 *641:89 0.00121031
92 *591:62 *641:20 0
93 *598:25 *641:112 1.54008e-05
94 *598:25 *641:118 0.000160849
95 *598:44 *641:118 0.000555736
96 *598:57 *641:118 0.00165196
97 *598:70 *641:118 0
98 *598:97 *3544:A 0
99 *598:97 *641:130 0.000716578
100 *599:36 *641:112 0.000128248
101 *608:10 *641:50 0.000499311
102 *611:64 *3528:A 0
103 *617:12 *641:20 0.000560005
104 *622:10 *3528:A 0
105 *624:14 *641:20 0
106 *632:8 *641:16 0
107 *637:10 *3542:A 0
*RES
1 *3545:X *641:8 41.5862 
2 *641:8 *641:10 20 
3 *641:10 *641:16 41.4008 
4 *641:16 *641:20 36.1092 
5 *641:20 *641:30 41.9708 
6 *641:30 *641:34 32.2158 
7 *641:34 *641:36 20 
8 *641:36 *641:42 46.7774 
9 *641:42 *641:50 46.5096 
10 *641:50 *3528:A 49.7026 
11 *641:36 *641:73 48.8992 
12 *641:73 *641:79 40.5356 
13 *641:79 *641:85 34.1728 
14 *641:85 *641:89 40.8678 
15 *641:89 *3542:A 42.6986 
16 *641:20 *641:104 37.819 
17 *641:104 *641:112 45.7371 
18 *641:112 *641:118 41.0017 
19 *641:118 *641:130 47.4263 
20 *641:130 *3544:A 46.0152 
21 *641:112 *3543:A 20.3502 
22 *641:10 *3537:A 20.3193 
*END

*D_NET *642 0.0147371
*CONN
*I *3271:RESET_B I *D sg13g2_dfrbpq_1
*I *3267:RESET_B I *D sg13g2_dfrbpq_1
*I *3255:RESET_B I *D sg13g2_dfrbpq_1
*I *3256:RESET_B I *D sg13g2_dfrbpq_1
*I *3268:RESET_B I *D sg13g2_dfrbpq_1
*I *3257:RESET_B I *D sg13g2_dfrbpq_1
*I *3270:RESET_B I *D sg13g2_dfrbpq_1
*I *3258:RESET_B I *D sg13g2_dfrbpq_1
*I *3546:X O *D sg13g2_buf_1
*CAP
1 *3271:RESET_B 0.000219543
2 *3267:RESET_B 7.92757e-05
3 *3255:RESET_B 0.000238337
4 *3256:RESET_B 3.4601e-05
5 *3268:RESET_B 0.000157618
6 *3257:RESET_B 0.000157627
7 *3270:RESET_B 0.000216971
8 *3258:RESET_B 0
9 *3546:X 0
10 *642:75 0.000675768
11 *642:64 0.000538184
12 *642:53 0.000732672
13 *642:42 0.00135027
14 *642:23 0.00126862
15 *642:12 0.00058447
16 *642:4 0.000515378
17 *642:23 *643:83 0
18 *642:42 *643:83 0
19 *3102:A1 *3255:RESET_B 0
20 *3106:A0 *642:12 0.000929208
21 *3255:CLK *3255:RESET_B 0
22 *3255:CLK *3267:RESET_B 0
23 *3257:D *3257:RESET_B 0
24 *3267:D *3255:RESET_B 1.54008e-05
25 *3268:D *3268:RESET_B 0
26 *3268:CLK *3268:RESET_B 0
27 *3271:D *3271:RESET_B 0
28 *3627:trim[7] *3270:RESET_B 0
29 *179:10 *642:64 0.000236294
30 *179:10 *642:75 0.000343202
31 *192:10 *642:53 0.000554249
32 *340:10 *642:53 0.000820481
33 *340:21 *642:53 0.000821726
34 *340:21 *642:64 0.000480615
35 *340:32 *642:64 0.000128742
36 *340:32 *642:75 0.000481818
37 *340:43 *3267:RESET_B 0.000160341
38 *340:43 *642:75 0.000819438
39 *450:10 *3255:RESET_B 0
40 *450:30 *3257:RESET_B 0
41 *452:8 *642:42 0.00018211
42 *452:16 *642:12 0.00050146
43 *452:16 *642:23 0.000500717
44 *452:16 *642:42 0.000373627
45 *462:10 *3267:RESET_B 0
46 *462:10 *642:75 0
47 *464:8 *642:53 0
48 *464:24 *3270:RESET_B 7.9225e-05
49 *466:12 *642:12 0
50 *466:12 *642:23 0.000122871
51 *601:25 *642:12 0.000235055
52 *601:54 *3268:RESET_B 0
53 *601:58 *642:53 0
54 *601:58 *642:64 0
55 *601:69 *642:75 0
56 *602:59 *642:23 0.000181192
57 *602:65 *642:42 0
58 *602:65 *642:53 0
*RES
1 *3546:X *642:4 20 
2 *642:4 *642:12 45.0573 
3 *642:12 *3258:RESET_B 20 
4 *642:12 *642:23 23.5741 
5 *642:23 *3270:RESET_B 41.9776 
6 *642:23 *642:42 27.004 
7 *642:42 *3257:RESET_B 21.5291 
8 *642:42 *642:53 27.519 
9 *642:53 *3268:RESET_B 40.6051 
10 *642:53 *642:64 2.8222 
11 *642:64 *3256:RESET_B 40.3193 
12 *642:64 *642:75 6.0358 
13 *642:75 *3255:RESET_B 42.4823 
14 *642:75 *3267:RESET_B 41.1639 
15 *642:4 *3271:RESET_B 22.2145 
*END

*D_NET *643 0.0142844
*CONN
*I *3260:RESET_B I *D sg13g2_dfrbpq_1
*I *3259:RESET_B I *D sg13g2_dfrbpq_1
*I *3269:RESET_B I *D sg13g2_dfrbpq_1
*I *3546:A I *D sg13g2_buf_1
*I *3627:reset I *D delay_line
*I *3272:RESET_B I *D sg13g2_dfrbpq_1
*I *3251:RESET_B I *D sg13g2_dfrbpq_1
*I *3547:X O *D sg13g2_buf_1
*CAP
1 *3260:RESET_B 0
2 *3259:RESET_B 0
3 *3269:RESET_B 0
4 *3546:A 0.000122332
5 *3627:reset 0.000300483
6 *3272:RESET_B 4.08322e-05
7 *3251:RESET_B 0.000102128
8 *3547:X 0.000132299
9 *643:103 0.000184837
10 *643:83 0.00154048
11 *643:68 0.0019238
12 *643:54 0.000861372
13 *643:48 0.00105418
14 *643:33 0.0013256
15 *643:27 0.00154554
16 *643:8 0.00106464
17 *3094:A0 *643:54 0
18 *3095:S *643:33 0
19 *3251:D *3251:RESET_B 0
20 *3259:D *643:54 0
21 *3272:D *643:33 4.77425e-05
22 *3272:CLK *643:33 0.000286402
23 *3272:CLK *643:48 0.000500277
24 *195:8 *643:48 0
25 *335:12 *3251:RESET_B 0
26 *335:12 *643:27 0
27 *337:88 *3627:reset 0
28 *337:88 *643:54 0
29 *338:27 *3251:RESET_B 4.77699e-05
30 *338:27 *643:8 0
31 *338:34 *643:54 0
32 *338:34 *643:68 0
33 *338:34 *643:83 0
34 *338:43 *643:83 0
35 *338:66 *643:83 0
36 *444:14 *643:27 0
37 *444:35 *643:27 4.77699e-05
38 *450:30 *643:83 0.000176673
39 *453:8 *3627:reset 0
40 *454:20 *643:27 0
41 *454:20 *643:33 0
42 *454:20 *643:103 0
43 *464:24 *643:83 0
44 *465:8 *643:83 0
45 *467:8 *643:48 0
46 *475:25 *3251:RESET_B 0
47 *602:22 *643:33 0.000177299
48 *602:42 *643:54 0.000609356
49 *602:42 *643:68 0.000106392
50 *602:59 *643:68 0.000768695
51 *602:59 *643:83 0.00117334
52 *602:65 *643:83 0.000144216
53 *642:23 *643:83 0
54 *642:42 *643:83 0
*RES
1 *3547:X *643:8 41.1845 
2 *643:8 *3251:RESET_B 41.1639 
3 *643:8 *643:27 28.961 
4 *643:27 *643:33 26.2006 
5 *643:33 *3272:RESET_B 40.3193 
6 *643:33 *643:48 29.0743 
7 *643:48 *643:54 23.5491 
8 *643:54 *3627:reset 22.9407 
9 *643:54 *643:68 4.0582 
10 *643:68 *3546:A 40.9682 
11 *643:68 *643:83 36.1195 
12 *643:83 *3269:RESET_B 20 
13 *643:48 *3259:RESET_B 20 
14 *643:27 *643:103 42.1939 
15 *643:103 *3260:RESET_B 20 
*END

*D_NET *644 0.00843121
*CONN
*I *3275:RESET_B I *D sg13g2_dfrbpq_1
*I *3274:RESET_B I *D sg13g2_dfrbpq_1
*I *3276:RESET_B I *D sg13g2_dfrbpq_1
*I *3261:RESET_B I *D sg13g2_dfrbpq_1
*I *3273:RESET_B I *D sg13g2_dfrbpq_1
*I *3277:RESET_B I *D sg13g2_dfrbpq_1
*I *3278:RESET_B I *D sg13g2_dfrbpq_1
*I *3279:RESET_B I *D sg13g2_dfrbpq_1
*I *3548:X O *D sg13g2_buf_1
*CAP
1 *3275:RESET_B 0
2 *3274:RESET_B 0.00025837
3 *3276:RESET_B 0
4 *3261:RESET_B 0
5 *3273:RESET_B 0.00022976
6 *3277:RESET_B 5.46353e-05
7 *3278:RESET_B 0
8 *3279:RESET_B 0
9 *3548:X 0
10 *644:84 0.00041515
11 *644:63 0.00078729
12 *644:49 0.000815033
13 *644:38 0.000631356
14 *644:36 0.00112828
15 *644:18 0.000693387
16 *644:8 0.00103019
17 *644:4 0.000989086
18 *644:8 *3548:A 0
19 *644:8 *647:70 0
20 *644:18 *647:70 0
21 *644:36 *3548:A 0
22 *3096:A0 *3273:RESET_B 0
23 *3096:A0 *644:63 0
24 *3108:S *3273:RESET_B 0
25 *3108:S *644:63 0.000193528
26 *3111:A0 *644:36 0
27 *3114:A0 *644:18 0.000307099
28 *3114:S *644:18 0
29 *3274:D *3274:RESET_B 0
30 *3274:D *644:84 0
31 *3276:D *644:63 0
32 *3627:sel[3] *644:36 0.000127744
33 *3627:sel[3] *644:38 0
34 *202:10 *644:18 0
35 *444:35 *644:38 0
36 *444:35 *644:49 0
37 *444:35 *644:63 0
38 *455:25 *644:38 0
39 *455:25 *644:49 0
40 *455:25 *644:63 0
41 *469:24 *644:36 0
42 *471:8 *644:36 0
43 *473:20 *644:18 0
44 *603:30 *644:36 0.000450073
45 *603:34 *644:8 0
46 *604:20 *644:38 0.000144395
47 *604:20 *644:84 0.000175837
*RES
1 *3548:X *644:4 20 
2 *644:4 *644:8 3.5432 
3 *644:8 *644:18 46.6744 
4 *644:18 *3279:RESET_B 20 
5 *644:8 *3278:RESET_B 20 
6 *644:4 *644:36 47.0967 
7 *644:36 *644:38 2.9149 
8 *644:38 *3277:RESET_B 20.8446 
9 *644:38 *644:49 2.678 
10 *644:49 *644:63 6.3448 
11 *644:63 *3273:RESET_B 22.266 
12 *644:63 *3261:RESET_B 20 
13 *644:49 *3276:RESET_B 20 
14 *644:36 *644:84 1.7819 
15 *644:84 *3274:RESET_B 22.009 
16 *644:84 *3275:RESET_B 20 
*END

*D_NET *645 0.0278955
*CONN
*I *3254:RESET_B I *D sg13g2_dfrbpq_1
*I *3265:RESET_B I *D sg13g2_dfrbpq_1
*I *3253:RESET_B I *D sg13g2_dfrbpq_1
*I *3252:RESET_B I *D sg13g2_dfrbpq_1
*I *3264:RESET_B I *D sg13g2_dfrbpq_1
*I *3263:RESET_B I *D sg13g2_dfrbpq_1
*I *3262:RESET_B I *D sg13g2_dfrbpq_1
*I *3548:A I *D sg13g2_buf_1
*I *3549:X O *D sg13g2_buf_1
*CAP
1 *3254:RESET_B 0.000708557
2 *3265:RESET_B 0.000236063
3 *3253:RESET_B 2.75379e-05
4 *3252:RESET_B 5.19803e-05
5 *3264:RESET_B 0.00016902
6 *3263:RESET_B 0
7 *3262:RESET_B 1.90822e-05
8 *3548:A 0.000766794
9 *3549:X 0.000124198
10 *645:98 0.000966462
11 *645:87 0.000625741
12 *645:67 0.000221001
13 *645:65 0.000792803
14 *645:55 0.00065115
15 *645:32 0.00143348
16 *645:22 0.00230295
17 *645:16 0.00228677
18 *645:10 0.000795834
19 *645:6 0.00068515
20 *3254:RESET_B *646:146 0
21 *3548:A *647:70 0
22 *645:65 *646:138 0.000499664
23 *645:87 *646:138 0.000589117
24 *3100:A0 *3265:RESET_B 0
25 *3100:A1 *3265:RESET_B 0
26 *3101:A0 *3265:RESET_B 0
27 *3265:D *3265:RESET_B 0
28 *3265:CLK *3254:RESET_B 0.000215107
29 *3266:D *3254:RESET_B 0.000240701
30 *3627:trim[12] *645:65 0.000498564
31 *3627:trim[12] *645:87 0.000554906
32 *185:10 *645:32 0.000182517
33 *285:12 *645:32 0
34 *298:116 *645:55 0.00247941
35 *336:60 *3254:RESET_B 0.000395311
36 *336:60 *645:87 0.00130192
37 *336:60 *645:98 0.00012816
38 *444:35 *645:22 0
39 *444:35 *645:32 0
40 *444:39 *645:16 0.00200688
41 *446:49 *3254:RESET_B 0.000265989
42 *446:49 *645:87 0.000341621
43 *446:49 *645:98 0.000106894
44 *460:10 *3254:RESET_B 0
45 *469:14 *645:32 0
46 *482:10 *645:16 0
47 *604:14 *645:22 0.00274593
48 *604:45 *645:55 0.00231865
49 *604:65 *645:55 0.000159615
50 *644:8 *3548:A 0
51 *644:36 *3548:A 0
*RES
1 *3549:X *645:6 20.9682 
2 *645:6 *645:10 1.3802 
3 *645:10 *645:16 30.2176 
4 *645:16 *645:22 39.0859 
5 *645:22 *645:32 47.416 
6 *645:32 *3548:A 27.8898 
7 *645:22 *3262:RESET_B 20.2858 
8 *645:10 *3263:RESET_B 20 
9 *645:6 *645:55 31.4742 
10 *645:55 *645:65 43.6462 
11 *645:65 *645:67 20 
12 *645:67 *3264:RESET_B 20.8464 
13 *645:67 *3252:RESET_B 20.2628 
14 *645:65 *645:87 9.1773 
15 *645:87 *3253:RESET_B 40.3193 
16 *645:87 *645:98 0.5974 
17 *645:98 *3265:RESET_B 42.4823 
18 *645:98 *3254:RESET_B 47.9001 
*END

*D_NET *646 0.0785473
*CONN
*I *3266:RESET_B I *D sg13g2_dfrbpq_1
*I *3203:RESET_B I *D sg13g2_dfrbpq_1
*I *3202:RESET_B I *D sg13g2_dfrbpq_1
*I *3204:RESET_B I *D sg13g2_dfrbpq_1
*I *3281:RESET_B I *D sg13g2_dfrbpq_1
*I *3280:RESET_B I *D sg13g2_dfrbpq_1
*I *3192:RESET_B I *D sg13g2_dfrbpq_1
*I *3191:RESET_B I *D sg13g2_dfrbpq_1
*I *3550:X O *D sg13g2_buf_1
*CAP
1 *3266:RESET_B 7.34682e-05
2 *3203:RESET_B 8.34837e-05
3 *3202:RESET_B 8.28643e-05
4 *3204:RESET_B 0
5 *3281:RESET_B 0.000650084
6 *3280:RESET_B 0
7 *3192:RESET_B 3.17875e-05
8 *3191:RESET_B 0.000348892
9 *3550:X 0.000993348
10 *646:146 0.000683853
11 *646:138 0.00593505
12 *646:136 0.00583901
13 *646:83 0.00116944
14 *646:77 0.000813324
15 *646:71 0.000662226
16 *646:69 0.00200594
17 *646:63 0.00173048
18 *646:57 0.000677594
19 *646:49 0.00831441
20 *646:47 0.00784659
21 *646:41 0.00292842
22 *646:39 0.00293772
23 *646:10 0.000734035
24 *3281:RESET_B *653:20 0.000176592
25 *646:39 *647:37 0
26 *3039:A1 *646:83 0
27 *3087:A1 *646:138 0.00162704
28 *3098:A1 *646:138 0.00163558
29 *3115:A0 *3281:RESET_B 7.99037e-05
30 *3191:D *3191:RESET_B 0
31 *3192:D *3191:RESET_B 0
32 *3204:D *646:83 0
33 *3254:RESET_B *646:146 0
34 *3266:CLK *3266:RESET_B 0
35 *3280:CLK *646:83 0
36 *3281:CLK *3281:RESET_B 0
37 *3281:CLK *646:83 0
38 *3625:A *3281:RESET_B 0
39 *3627:trim[13] *646:138 0
40 *3628:f_clk0_divider[1] *646:10 0
41 *115:10 *646:10 0
42 *204:10 *3281:RESET_B 0.000272391
43 *283:34 *646:69 0.00280151
44 *298:116 *646:41 0
45 *298:116 *646:138 0
46 *326:10 *646:57 0.00221936
47 *327:8 *646:57 0.00023547
48 *327:16 *3281:RESET_B 0.000610355
49 *327:16 *646:83 0
50 *330:12 *646:57 0.0022728
51 *330:16 *646:77 0
52 *332:30 *3191:RESET_B 0.000181608
53 *332:30 *646:10 0.00021346
54 *334:34 *646:69 0.000129281
55 *334:36 *646:69 0.00161696
56 *334:42 *646:69 0.000507007
57 *334:42 *646:71 0.00136554
58 *336:60 *646:138 0
59 *337:12 *646:57 0.000555039
60 *391:10 *646:69 0.00113205
61 *391:10 *646:71 0.000668889
62 *391:18 *646:71 0.00080457
63 *391:18 *646:77 0.000399086
64 *394:12 *3281:RESET_B 0.000287017
65 *413:45 *646:49 0
66 *413:49 *3191:RESET_B 0.000661386
67 *413:49 *646:10 0.000235055
68 *445:25 *646:138 0.000395177
69 *446:49 *646:138 0.000665651
70 *446:49 *646:146 0.000562627
71 *448:23 *646:10 0
72 *457:23 *646:138 0.00150813
73 *460:38 *646:146 0
74 *461:10 *646:146 0
75 *476:8 *3281:RESET_B 0
76 *476:8 *646:83 0.000235228
77 *479:49 *3281:RESET_B 0
78 *502:13 *3191:RESET_B 0
79 *599:71 *646:49 0
80 *604:14 *646:138 0
81 *604:34 *646:138 0
82 *604:45 *646:138 0
83 *604:65 *646:138 0
84 *605:38 *646:41 0.00863155
85 *605:50 *646:47 0
86 *605:52 *646:136 0
87 *605:69 *646:41 7.47964e-05
88 *605:69 *646:47 0.000102543
89 *605:69 *646:49 0
90 *605:69 *646:136 5.27974e-05
91 *605:71 *646:49 0
92 *645:65 *646:138 0.000499664
93 *645:87 *646:138 0.000589117
*RES
1 *3550:X *646:10 43.6774 
2 *646:10 *3191:RESET_B 44.6865 
3 *646:10 *3192:RESET_B 40.3193 
4 *3550:X *646:39 45.9431 
5 *646:39 *646:41 40.1494 
6 *646:41 *646:47 21.3493 
7 *646:47 *646:49 77.971 
8 *646:49 *646:57 33.3797 
9 *646:57 *646:63 40.7519 
10 *646:63 *646:69 23.0205 
11 *646:69 *646:71 6.7774 
12 *646:71 *646:77 22.9299 
13 *646:77 *646:83 24.6306 
14 *646:83 *3280:RESET_B 40 
15 *646:83 *3281:RESET_B 47.7044 
16 *646:77 *3204:RESET_B 20 
17 *646:71 *3202:RESET_B 40.6639 
18 *646:69 *3203:RESET_B 40.6639 
19 *646:41 *646:136 46.2624 
20 *646:136 *646:138 63.139 
21 *646:138 *646:146 46.1388 
22 *646:146 *3266:RESET_B 40.7519 
*END

*D_NET *647 0.0463065
*CONN
*I *3550:A I *D sg13g2_buf_1
*I *3547:A I *D sg13g2_buf_1
*I *3549:A I *D sg13g2_buf_1
*I *3545:A I *D sg13g2_buf_1
*I *3551:X O *D sg13g2_buf_1
*CAP
1 *3550:A 0
2 *3547:A 0.000998495
3 *3549:A 0
4 *3545:A 0.000397903
5 *3551:X 0
6 *647:70 0.00343821
7 *647:57 0
8 *647:53 0.00204769
9 *647:47 0.00224444
10 *647:41 0.009005
11 *647:39 0.00636853
12 *647:37 0.000556178
13 *647:33 0.00627158
14 *647:31 0.00780342
15 *647:4 0.00248592
16 *647:31 *701:127 0.000862906
17 *2975:A *3545:A 0
18 *3027:S *647:37 0
19 *3114:A0 *3547:A 0
20 *3114:A0 *647:70 0
21 *3278:D *647:70 0
22 *3403:A *647:33 0
23 *3531:A *3545:A 0
24 *3531:A *647:31 0
25 *3534:A *3545:A 0
26 *3548:A *647:70 0
27 *3551:A *3545:A 8.01545e-05
28 *14:23 *647:31 0.000176252
29 *115:10 *647:37 0
30 *258:18 *3545:A 0.000230175
31 *258:39 *3545:A 1.54008e-05
32 *285:18 *647:41 0
33 *291:172 *647:41 0
34 *313:8 *647:33 0
35 *319:81 *647:31 0.000965822
36 *338:27 *3547:A 0.00173342
37 *352:74 *647:33 0
38 *448:23 *647:41 0.000395396
39 *459:25 *647:41 0
40 *474:16 *647:70 0
41 *522:10 *3545:A 1.54008e-05
42 *599:8 *647:33 0
43 *605:36 *647:37 0
44 *607:31 *647:31 0
45 *607:33 *647:31 2.24836e-05
46 *607:33 *647:33 0
47 *607:41 *647:33 0
48 *625:12 *3545:A 0
49 *626:10 *647:31 0.000111685
50 *629:104 *647:31 8.00842e-05
51 *644:8 *647:70 0
52 *644:18 *647:70 0
53 *646:39 *647:37 0
*RES
1 *3551:X *647:4 20 
2 *647:4 *3545:A 24.5217 
3 *647:4 *647:31 42.1862 
4 *647:31 *647:33 63.6334 
5 *647:33 *647:37 24.6453 
6 *647:37 *647:39 20 
7 *647:39 *647:41 65.1166 
8 *647:41 *647:47 42.4823 
9 *647:47 *647:53 45.3277 
10 *647:53 *647:57 40 
11 *647:57 *3549:A 20 
12 *647:41 *647:70 45.9251 
13 *647:70 *3547:A 31.9995 
14 *647:37 *3550:A 20 
*END

*D_NET *648 0.0187686
*CONN
*I *3357:CLK I *D sg13g2_dfrbpq_1
*I *2965:Y O *D sg13g2_inv_1
*CAP
1 *3357:CLK 0.00080072
2 *2965:Y 0
3 *648:18 0.00080072
4 *648:14 0.0030891
5 *648:12 0.00321102
6 *648:6 0.000121916
7 *3361:RESET_B *3357:CLK 8.01995e-05
8 *16:13 *648:14 0
9 *241:10 *648:12 0
10 *256:16 *648:14 0
11 *256:30 *648:14 0.00037359
12 *272:14 *648:14 0.00751934
13 *273:30 *648:12 1.50092e-05
14 *356:43 *648:14 0
15 *508:6 *3357:CLK 0
16 *525:26 *648:14 0
17 *544:12 *648:14 0
18 *583:20 *648:12 0
19 *583:195 *648:12 0
20 *617:14 *648:14 0
21 *629:22 *648:14 0.00275702
*RES
1 *2965:Y *648:6 40 
2 *648:6 *648:12 41.1845 
3 *648:12 *648:14 43.363 
4 *648:14 *648:18 40 
5 *648:18 *3357:CLK 46.1594 
*END

*D_NET *649 0.0143436
*CONN
*I *3356:CLK I *D sg13g2_dfrbpq_1
*I *2966:Y O *D sg13g2_inv_1
*CAP
1 *3356:CLK 0
2 *2966:Y 3.06411e-05
3 *649:16 0.00113544
4 *649:10 0.00436567
5 *649:6 0.00326087
6 *649:16 *688:8 0
7 *3236:D *649:10 0.000306897
8 *3237:D *649:10 0
9 *3238:D *649:10 8.02267e-05
10 *3249:D *649:10 0.000111876
11 *3250:D *649:10 0.000306639
12 *3362:RESET_B *649:16 0.000951561
13 *3362:D *649:10 0.000403179
14 *3375:A *649:10 0
15 *32:12 *649:10 0
16 *65:12 *649:10 0
17 *65:28 *649:10 0
18 *90:14 *649:10 0
19 *246:16 *649:10 0.00172832
20 *287:27 *649:10 0
21 *342:12 *649:16 0
22 *350:6 *649:10 0
23 *350:12 *649:10 0
24 *351:20 *649:16 0.000435801
25 *351:69 *649:16 0
26 *520:14 *649:10 0
27 *624:40 *649:16 0.000370657
28 *625:41 *649:16 0.000582095
29 *625:49 *649:16 0.000273739
30 *632:60 *649:16 0
*RES
1 *2966:Y *649:6 20.3502 
2 *649:6 *649:10 49.7361 
3 *649:10 *649:16 32.0407 
4 *649:16 *3356:CLK 20 
*END

*D_NET *650 0.00109992
*CONN
*I *2997:A1 I *D sg13g2_a22oi_1
*I *3628:osc_out O *D multimode_dll
*CAP
1 *2997:A1 0.000526088
2 *3628:osc_out 0.000526088
3 *2997:A1 *2995:A1 0
4 *2993:A1 *2997:A1 0
5 *250:23 *2997:A1 0
6 *251:12 *2997:A1 4.77425e-05
*RES
1 *3628:osc_out *2997:A1 25.889 
*END

*D_NET *651 0.00345408
*CONN
*I *2995:A1 I *D sg13g2_a22oi_1
*I *3628:stable O *D multimode_dll
*CAP
1 *2995:A1 0.000374619
2 *3628:stable 0.000762237
3 *651:15 0.00113686
4 *2991:B1 *2995:A1 4.77425e-05
5 *2993:B1 *2995:A1 9.6913e-05
6 *2993:A1 *2995:A1 0
7 *2997:A1 *2995:A1 0
8 *3628:clk1_phase_sel[1] *651:15 0
9 *3628:clk1_phase_sel[4] *651:15 0
10 *250:23 *2995:A1 0
11 *385:86 *651:15 0.00103571
12 *599:81 *651:15 0
*RES
1 *3628:stable *651:15 48.7524 
2 *651:15 *2995:A1 23.5638 
*END

*D_NET *652 0.0038001
*CONN
*I *2993:B2 I *D sg13g2_a22oi_1
*I *3622:A I *D SwitchMatrixMultiplexer_inv
*I *3623:Q I *D latch
*CAP
1 *2993:B2 0
2 *3622:A 0
3 *3623:Q 0
4 *652:33 0.000426067
5 *652:18 0.00049936
6 *652:4 0.000925427
7 *652:18 *656:27 0.000176367
8 *652:33 *656:27 0
9 *2993:B1 *652:33 0
10 *2993:A2 *652:33 0.000251727
11 *2995:A2 *652:33 4.75425e-05
12 *3215:D *652:33 0
13 *3628:f_clk1_divider[4] *652:18 0
14 *3628:f_clk1_divider[4] *652:33 0
15 *405:16 *652:18 0.000735357
16 *409:12 *652:18 0.00073825
17 *599:81 *652:33 0
18 *637:16 *652:18 0
*RES
1 *3623:Q *652:4 20 
2 *652:4 *652:18 46.5276 
3 *652:18 *3622:A 20 
4 *652:4 *652:33 43.8635 
5 *652:33 *2993:B2 20 
*END

*D_NET *653 0.019457
*CONN
*I *3624:A I *D SwitchMatrixMultiplexer
*I *2997:B2 I *D sg13g2_a22oi_1
*I *3622:B I *D SwitchMatrixMultiplexer_inv
*I *3625:X I *D mux
*CAP
1 *3624:A 7.7953e-05
2 *2997:B2 0.000530186
3 *3622:B 0
4 *3625:X 0.000308788
5 *653:26 0.000808072
6 *653:22 0.00400281
7 *653:20 0.00393632
8 *653:14 0.000598133
9 *2997:B2 *654:10 4.77425e-05
10 *653:22 *655:8 0
11 *653:22 *656:10 0
12 *653:26 *654:10 7.51285e-05
13 *653:26 *655:8 0
14 *3115:S *653:20 0.000143908
15 *3116:S *653:20 0
16 *3206:CLK *653:22 0.000501045
17 *3223:CLK *653:22 0.00183547
18 *3281:RESET_B *653:20 0.000176592
19 *3281:CLK *653:14 0
20 *3285:RESET_B *2997:B2 0
21 *3628:clk0_phase_sel[1] *653:22 0.000181608
22 *250:12 *2997:B2 4.77425e-05
23 *250:23 *2997:B2 3.23417e-05
24 *250:57 *2997:B2 0
25 *251:12 *2997:B2 0
26 *329:24 *653:22 0.00151163
27 *330:33 *653:22 0
28 *331:33 *653:22 0.000555321
29 *331:35 *653:22 0.000447182
30 *334:61 *653:22 0.000343847
31 *337:24 *653:22 0
32 *337:30 *653:22 0
33 *358:16 *2997:B2 0
34 *395:8 *653:22 0.000479035
35 *402:8 *653:22 0.00156717
36 *409:12 *653:22 0
37 *412:8 *653:22 0.000160013
38 *412:18 *653:22 0.00108896
39 *476:25 *653:14 0
40 *480:12 *653:26 0
41 *480:14 *653:26 0
42 *594:63 *653:22 0
43 *594:63 *653:26 0
44 *605:89 *653:20 0
45 *634:54 *2997:B2 0
*RES
1 *3625:X *653:14 42.8505 
2 *653:14 *653:20 42.9149 
3 *653:20 *653:22 41.9828 
4 *653:22 *653:26 22.472 
5 *653:26 *3622:B 20 
6 *653:26 *2997:B2 24.6968 
7 *653:22 *3624:A 40.5691 
*END

*D_NET *654 0.00324104
*CONN
*I *2989:A1 I *D sg13g2_mux4_1
*I *3622:X I *D SwitchMatrixMultiplexer_inv
*CAP
1 *2989:A1 0.000152566
2 *3622:X 0.000531601
3 *654:10 0.000684167
4 *2989:A2 *2989:A1 0.000241052
5 *2997:B2 *654:10 4.77425e-05
6 *3123:S *2989:A1 4.77699e-05
7 *3219:RESET_B *2989:A1 0
8 *3285:RESET_B *654:10 0
9 *327:20 *654:10 0
10 *327:22 *654:10 0
11 *358:16 *654:10 0
12 *480:14 *654:10 0
13 *594:48 *654:10 0.000607938
14 *594:63 *654:10 0.000853077
15 *653:26 *654:10 7.51285e-05
*RES
1 *3622:X *654:10 47.7482 
2 *654:10 *2989:A1 41.6171 
*END

*D_NET *655 0.00224857
*CONN
*I *3623:D I *D latch
*I *2991:B2 I *D sg13g2_a22oi_1
*I *3624:X I *D SwitchMatrixMultiplexer
*CAP
1 *3623:D 0.000373535
2 *2991:B2 2.8528e-05
3 *3624:X 0.000100544
4 *655:12 0.000692291
5 *655:8 0.000390773
6 *3623:D *656:27 0
7 *655:8 *656:10 0.00018261
8 *655:12 *656:14 0
9 *2991:B1 *3623:D 0
10 *2995:A2 *3623:D 0
11 *3623:GATE *3623:D 0
12 *3624:D *655:12 0
13 *250:57 *3623:D 8.00842e-05
14 *480:12 *655:8 0.000400207
15 *653:22 *655:8 0
16 *653:26 *655:8 0
*RES
1 *3624:X *655:8 41.8334 
2 *655:8 *655:12 22.266 
3 *655:12 *2991:B2 20.3193 
4 *655:12 *3623:D 23.7518 
*END

*D_NET *656 0.014755
*CONN
*I *2995:B2 I *D sg13g2_a22oi_1
*I *3624:B I *D SwitchMatrixMultiplexer
*I *3626:X I *D mux_inv
*CAP
1 *2995:B2 0
2 *3624:B 0
3 *3626:X 0.000368364
4 *656:27 0.000649466
5 *656:14 0.000707263
6 *656:10 0.00370627
7 *656:8 0.00401683
8 *3050:S *656:10 0.000395488
9 *3206:CLK *656:10 0.00050146
10 *3223:CLK *656:10 0.000768366
11 *3623:D *656:27 0
12 *250:23 *656:27 0
13 *326:10 *656:27 0.000394519
14 *329:24 *656:10 0.00151379
15 *331:33 *656:10 0.000533225
16 *331:35 *656:10 0.000425501
17 *337:39 *656:8 0
18 *480:10 *656:10 0
19 *480:12 *656:10 0
20 *593:69 *656:10 0.00028775
21 *593:71 *656:10 0.000127744
22 *637:76 *656:8 0
23 *652:18 *656:27 0.000176367
24 *652:33 *656:27 0
25 *653:22 *656:10 0
26 *655:8 *656:10 0.00018261
27 *655:12 *656:14 0
*RES
1 *3626:X *656:8 43.1312 
2 *656:8 *656:10 35.2054 
3 *656:10 *656:14 20.166 
4 *656:14 *3624:B 20 
5 *656:14 *656:27 45.5768 
6 *656:27 *2995:B2 20 
*END

*D_NET *657 0.0102806
*CONN
*I *3552:A I *D sg13g2_dlygate4sd3_1
*I *3353:Q O *D sg13g2_dfrbpq_1
*CAP
1 *3552:A 0
2 *3353:Q 0.000821669
3 *657:16 0.00103121
4 *657:10 0.00185288
5 *657:16 *667:8 0
6 *3174:CLK *657:10 0.000565235
7 *3433:A *657:16 0
8 *52:12 *657:16 2.14736e-05
9 *52:18 *657:10 0
10 *71:10 *657:16 0
11 *94:10 *657:16 0.000127542
12 *274:12 *657:16 0.00300283
13 *296:21 *657:16 0
14 *317:10 *657:10 0.000824591
15 *351:69 *657:10 0
16 *508:6 *657:10 0.000466708
17 *606:56 *657:16 0
18 *623:73 *657:16 0.000704229
19 *623:77 *657:16 0.00086225
*RES
1 *3353:Q *657:10 49.3215 
2 *657:10 *657:16 34.5127 
3 *657:16 *3552:A 20 
*END

*D_NET *658 0.00575144
*CONN
*I *2976:A0 I *D sg13g2_mux2_1
*I *3314:Q O *D sg13g2_dfrbpq_1
*CAP
1 *2976:A0 0
2 *3314:Q 9.80426e-05
3 *658:14 0.00131027
4 *658:8 0.00140831
5 *658:14 *2976:A1 4.77702e-05
6 *2977:S *658:14 0
7 *3124:A0 *658:14 0.00146235
8 *324:12 *658:14 0
9 *324:14 *658:14 0
10 *360:12 *658:8 0.000144054
11 *360:12 *658:14 0.00128065
12 *361:12 *658:14 0
*RES
1 *3314:Q *658:8 40.9682 
2 *658:8 *658:14 36.9538 
3 *658:14 *2976:A0 20 
*END

*D_NET *659 0.00173047
*CONN
*I *2977:A0 I *D sg13g2_mux2_1
*I *3315:Q O *D sg13g2_dfrbpq_1
*CAP
1 *2977:A0 0
2 *3315:Q 0.000800656
3 *659:12 0.000800656
4 *325:18 *659:12 0
5 *538:10 *659:12 0.000129163
6 *633:42 *659:12 0
7 *633:60 *659:12 0
*RES
1 *3315:Q *659:12 48.1885 
2 *659:12 *2977:A0 40 
*END

*D_NET *660 0.000958592
*CONN
*I *2978:A0 I *D sg13g2_mux2_1
*I *3316:Q O *D sg13g2_dfrbpq_1
*CAP
1 *2978:A0 2.60565e-05
2 *3316:Q 6.42926e-05
3 *660:8 9.03491e-05
4 *2978:A0 *2978:A1 4.77425e-05
5 *57:8 *660:8 0.000341204
6 *327:28 *660:8 0.000341204
7 *620:27 *2978:A0 4.77425e-05
*RES
1 *3316:Q *660:8 41.5862 
2 *660:8 *2978:A0 40.3193 
*END

*D_NET *661 0.000678512
*CONN
*I *2979:A0 I *D sg13g2_mux2_1
*I *3317:Q O *D sg13g2_dfrbpq_1
*CAP
1 *2979:A0 0
2 *3317:Q 0.000168349
3 *661:10 0.000168349
4 *326:32 *661:10 0.000341814
5 *583:127 *661:10 0
*RES
1 *3317:Q *661:10 41.9055 
2 *661:10 *2979:A0 40 
*END

*D_NET *662 0.000680682
*CONN
*I *2980:A0 I *D sg13g2_mux2_1
*I *3322:Q O *D sg13g2_dfrbpq_1
*CAP
1 *2980:A0 0.000212637
2 *3322:Q 0.000212637
3 *2980:A0 *2980:A1 8.00842e-05
4 *579:64 *2980:A0 0.000175324
*RES
1 *3322:Q *2980:A0 42.5441 
*END

*D_NET *663 0.00242548
*CONN
*I *2981:A0 I *D sg13g2_mux2_1
*I *3323:Q O *D sg13g2_dfrbpq_1
*CAP
1 *2981:A0 0
2 *3323:Q 0.000600779
3 *663:10 0.000600779
4 *47:10 *663:10 7.51285e-05
5 *294:26 *663:10 0
6 *595:12 *663:10 0.000603363
7 *613:10 *663:10 1.54008e-05
8 *613:16 *663:10 0.000530036
*RES
1 *3323:Q *663:10 46.386 
2 *663:10 *2981:A0 40 
*END

*D_NET *664 0.00273797
*CONN
*I *2982:A0 I *D sg13g2_mux2_1
*I *3324:Q O *D sg13g2_dfrbpq_1
*CAP
1 *2982:A0 0.00035316
2 *3324:Q 0.000121991
3 *664:8 0.000475151
4 *2982:A0 *2982:A1 0.000465468
5 *3578:A *2982:A0 0
6 *512:10 *664:8 0.000661057
7 *582:49 *2982:A0 0
8 *582:55 *2982:A0 0
9 *582:55 *664:8 0.000661144
*RES
1 *3324:Q *664:8 43.0694 
2 *664:8 *2982:A0 43.3475 
*END

*D_NET *665 0.00173867
*CONN
*I *2983:A0 I *D sg13g2_mux2_1
*I *3325:Q O *D sg13g2_dfrbpq_1
*CAP
1 *2983:A0 0.000415249
2 *3325:Q 0.000244389
3 *665:8 0.000659639
4 *2983:A0 *2983:A1 0.000177184
5 *3298:RESET_B *2983:A0 0
6 *3298:D *2983:A0 0
7 *3347:D *2983:A0 0
8 *325:28 *2983:A0 0.000242213
9 *325:28 *665:8 0
10 *374:18 *2983:A0 0
11 *374:18 *665:8 0
12 *541:8 *665:8 0
13 *582:59 *2983:A0 0
14 *582:69 *2983:A0 0
*RES
1 *3325:Q *665:8 42.8222 
2 *665:8 *2983:A0 44.4805 
*END

*D_NET *666 0.0185009
*CONN
*I *3559:A I *D sg13g2_dlygate4sd3_1
*I *2944:A1 I *D sg13g2_mux2_1
*I *3170:Q O *D sg13g2_dfrbpq_1
*CAP
1 *3559:A 0.000134114
2 *2944:A1 0.000364235
3 *3170:Q 6.48866e-05
4 *666:43 0.000858473
5 *666:39 0.00133308
6 *666:16 0.00172911
7 *666:12 0.00205627
8 *666:8 0.000147556
9 *666:8 *703:66 0.000340824
10 *666:16 *702:24 0.00107077
11 *666:39 *692:53 0.000603597
12 *3227:RESET_B *666:43 0.000126354
13 *3357:D *666:16 0.00129207
14 *76:12 *666:8 0.000340324
15 *76:12 *666:16 0
16 *235:34 *666:43 0
17 *246:70 *666:16 0.00217278
18 *299:10 *666:16 0.000603358
19 *308:27 *666:39 0.00065335
20 *308:27 *666:43 0.00155875
21 *348:18 *2944:A1 0
22 *348:84 *666:39 4.76973e-05
23 *385:40 *666:43 0.00108192
24 *416:16 *666:39 0
25 *522:30 *666:39 0.00034042
26 *522:48 *2944:A1 0.00046649
27 *522:48 *666:16 0
28 *524:10 *2944:A1 0.000595591
29 *592:140 *666:16 0
30 *623:18 *666:43 0
31 *625:132 *666:16 0.000179073
32 *630:63 *666:43 0.000339817
*RES
1 *3170:Q *666:8 41.5862 
2 *666:8 *666:12 20.7519 
3 *666:12 *666:16 38.1486 
4 *666:16 *2944:A1 44.2127 
5 *666:12 *666:39 47.3439 
6 *666:39 *666:43 30.2382 
7 *666:43 *3559:A 41.1845 
*END

*D_NET *667 0.00610647
*CONN
*I *2943:A1 I *D sg13g2_mux2_1
*I *3562:A I *D sg13g2_dlygate4sd3_1
*I *3171:Q O *D sg13g2_dfrbpq_1
*CAP
1 *2943:A1 2.37854e-05
2 *3562:A 0.000754643
3 *3171:Q 0.000685267
4 *667:10 0.000778428
5 *667:8 0.000685267
6 *2938:A0 *2943:A1 0
7 *2938:A0 *3562:A 0
8 *3433:A *667:8 0.000393653
9 *68:19 *3562:A 0
10 *71:10 *3562:A 0.000984648
11 *94:10 *667:8 0.000127542
12 *98:10 *3562:A 0.000305395
13 *238:22 *667:8 0
14 *348:36 *2943:A1 4.77425e-05
15 *348:36 *3562:A 0.000176511
16 *533:48 *2943:A1 1.54282e-05
17 *554:22 *667:8 0
18 *623:73 *667:8 0.00026591
19 *623:77 *667:8 0.00086225
20 *657:16 *667:8 0
*RES
1 *3171:Q *667:8 47.519 
2 *667:8 *667:10 20 
3 *667:10 *3562:A 28.3739 
4 *667:10 *2943:A1 20.3193 
*END

*D_NET *668 0.0026741
*CONN
*I *2942:A1 I *D sg13g2_mux2_1
*I *3368:D I *D sg13g2_dfrbpq_1
*I *3172:Q O *D sg13g2_dfrbpq_1
*CAP
1 *2942:A1 0
2 *3368:D 0
3 *3172:Q 0.000209304
4 *668:27 0.000528756
5 *668:12 0.000679897
6 *668:8 0.000360445
7 *3368:RESET_B *668:12 0
8 *75:22 *668:27 0
9 *96:10 *668:12 0
10 *96:10 *668:27 0
11 *259:36 *668:27 0.000448099
12 *295:16 *668:27 0
13 *348:10 *668:27 0
14 *348:18 *668:8 0
15 *544:24 *668:8 0
16 *592:151 *668:27 0.000447598
*RES
1 *3172:Q *668:8 41.8334 
2 *668:8 *668:12 21.4008 
3 *668:12 *3368:D 20 
4 *668:12 *668:27 45.6821 
5 *668:27 *2942:A1 20 
*END

*D_NET *669 0.00488338
*CONN
*I *3369:D I *D sg13g2_dfrbpq_1
*I *2941:A1 I *D sg13g2_mux2_1
*I *3173:Q O *D sg13g2_dfrbpq_1
*CAP
1 *3369:D 0.000285242
2 *2941:A1 0.000815287
3 *3173:Q 0.000196327
4 *669:10 0.00129686
5 *2941:A0 *2941:A1 1.53827e-05
6 *3061:A1 *3369:D 0.000304675
7 *3172:RESET_B *2941:A1 0
8 *3368:RESET_B *2941:A1 0.000445853
9 *3368:RESET_B *669:10 0.000265081
10 *3487:A *3369:D 0.000369213
11 *15:13 *2941:A1 0
12 *68:50 *3369:D 0
13 *75:22 *2941:A1 0
14 *96:10 *2941:A1 0.000126358
15 *318:62 *3369:D 0
16 *506:8 *2941:A1 0
17 *555:40 *2941:A1 0.000401822
18 *626:72 *2941:A1 0
19 *626:72 *669:10 0.000180682
20 *629:67 *669:10 0.000180603
*RES
1 *3173:Q *669:10 42.6162 
2 *669:10 *2941:A1 47.7147 
3 *669:10 *3369:D 43.2599 
*END

*D_NET *670 0.0174423
*CONN
*I *2969:B I *D sg13g2_nand2_1
*I *3312:Q O *D sg13g2_dfrbpq_1
*CAP
1 *2969:B 0
2 *3312:Q 0.000102465
3 *670:24 0.000232626
4 *670:16 0.00360707
5 *670:14 0.00440915
6 *670:8 0.00113718
7 *670:8 *697:18 7.30101e-05
8 *670:14 *697:18 4.9525e-05
9 *3292:CLK *670:24 0.000124547
10 *40:14 *670:16 0.00308658
11 *245:37 *670:16 0.00275973
12 *245:43 *670:16 0
13 *245:43 *670:24 0.00058622
14 *246:28 *670:8 2.16289e-05
15 *317:22 *670:24 0.000616283
16 *342:12 *670:8 0
17 *587:18 *670:24 0
18 *616:28 *670:16 0.000636286
*RES
1 *3312:Q *670:8 40.8446 
2 *670:8 *670:14 29.6923 
3 *670:14 *670:16 41.0455 
4 *670:16 *670:24 43.6668 
5 *670:24 *2969:B 20 
*END

*D_NET *671 0.00110918
*CONN
*I *3555:A I *D sg13g2_dlygate4sd3_1
*I *3366:Q O *D sg13g2_dfrbpq_1
*CAP
1 *3555:A 0.000433935
2 *3366:Q 0.000433935
3 *3021:S *3555:A 0
4 *3358:D *3555:A 0
5 *598:6 *3555:A 0
6 *598:25 *3555:A 0
7 *599:124 *3555:A 0.00024131
*RES
1 *3366:Q *3555:A 44.2951 
*END

*D_NET *672 0.00211015
*CONN
*I *3558:A I *D sg13g2_dlygate4sd3_1
*I *3367:Q O *D sg13g2_dfrbpq_1
*CAP
1 *3558:A 0.000357097
2 *3367:Q 0.000391862
3 *672:8 0.000748959
4 *31:20 *3558:A 7.92265e-05
5 *31:28 *672:8 0
6 *162:12 *672:8 0
7 *342:35 *3558:A 0
8 *345:18 *3558:A 0.000533008
9 *347:16 *672:8 0
10 *347:29 *672:8 0
11 *431:23 *672:8 0
*RES
1 *3367:Q *672:8 42.8222 
2 *672:8 *3558:A 43.5638 
*END

*D_NET *673 0.0175119
*CONN
*I *3556:A I *D sg13g2_dlygate4sd3_1
*I *3368:Q O *D sg13g2_dfrbpq_1
*CAP
1 *3556:A 5.08741e-05
2 *3368:Q 0.000137105
3 *673:18 0.00176727
4 *673:16 0.00208603
5 *673:10 0.000506746
6 *673:18 *3012:B 7.33225e-05
7 *673:18 *703:18 0.00175754
8 *673:18 *707:10 0.0015098
9 *75:8 *673:18 0.00704801
10 *107:16 *673:18 0
11 *107:24 *673:18 0
12 *150:14 *3556:A 8.00842e-05
13 *259:22 *673:16 0.000176252
14 *260:26 *673:18 0
15 *260:47 *673:18 0
16 *260:55 *673:18 0.00172695
17 *295:16 *673:10 0.000127825
18 *318:46 *673:10 0.000143908
19 *318:46 *673:16 0.000176252
20 *626:53 *673:10 0.000143969
*RES
1 *3368:Q *673:10 41.5656 
2 *673:10 *673:16 43.3475 
3 *673:16 *673:18 32.7334 
4 *673:18 *3556:A 40.5356 
*END

*D_NET *674 0.00720286
*CONN
*I *3557:A I *D sg13g2_dlygate4sd3_1
*I *3369:Q O *D sg13g2_dfrbpq_1
*CAP
1 *3557:A 0
2 *3369:Q 0
3 *674:14 0.00148534
4 *674:6 0.00148534
5 *674:14 *2940:A_N 0
6 *674:14 *2974:A1 0.000210196
7 *674:14 *691:24 0.00049875
8 *674:14 *699:18 0.00240057
9 *674:14 *700:24 0
10 *15:9 *674:14 0.000501962
11 *297:10 *674:14 0
12 *562:30 *674:14 0
13 *562:63 *674:14 0
14 *569:22 *674:14 0.00017734
15 *623:36 *674:14 0.000443366
16 *639:38 *674:14 0
*RES
1 *3369:Q *674:6 40 
2 *674:6 *674:14 38.1383 
3 *674:14 *3557:A 20 
*END

*D_NET *675 0.00167896
*CONN
*I *2984:A0 I *D sg13g2_mux2_1
*I *3318:Q O *D sg13g2_dfrbpq_1
*CAP
1 *2984:A0 5.18791e-05
2 *3318:Q 0.000111823
3 *675:14 0.000196764
4 *675:8 0.000256708
5 *675:8 *693:10 0.00012596
6 *12:13 *675:14 0.000277037
7 *37:16 *675:14 0.000277033
8 *423:36 *2984:A0 8.00842e-05
9 *612:12 *675:8 0.000176083
10 *612:14 *675:8 0.00012559
*RES
1 *3318:Q *675:8 41.339 
2 *675:8 *675:14 41.8334 
3 *675:14 *2984:A0 40.5356 
*END

*D_NET *676 0.003101
*CONN
*I *2985:A0 I *D sg13g2_mux2_1
*I *3319:Q O *D sg13g2_dfrbpq_1
*CAP
1 *2985:A0 0.000120007
2 *3319:Q 0.000468528
3 *676:12 0.000588535
4 *2985:A0 *2985:A1 1.54282e-05
5 *516:22 *676:12 0.000858251
6 *579:32 *676:12 0.000281001
7 *582:151 *2985:A0 1.54282e-05
8 *588:46 *676:12 0.000753825
*RES
1 *3319:Q *676:12 46.4272 
2 *676:12 *2985:A0 40.9682 
*END

*D_NET *677 0.00310281
*CONN
*I *2986:A0 I *D sg13g2_mux2_1
*I *3320:Q O *D sg13g2_dfrbpq_1
*CAP
1 *2986:A0 3.28346e-05
2 *3320:Q 0.00085702
3 *677:12 0.000889854
4 *2986:A0 *2986:A1 1.54008e-05
5 *677:12 *695:16 0.000661709
6 *64:16 *677:12 0.000466796
7 *78:8 *677:12 0.000179192
8 *239:20 *677:12 0
9 *294:63 *677:12 0
10 *580:28 *677:12 0
*RES
1 *3320:Q *677:12 48.7138 
2 *677:12 *2986:A0 40.3193 
*END

*D_NET *678 0.00149857
*CONN
*I *2987:A0 I *D sg13g2_mux2_1
*I *3321:Q O *D sg13g2_dfrbpq_1
*CAP
1 *2987:A0 0.000468139
2 *3321:Q 0.000468139
3 *66:8 *2987:A0 0.000562296
4 *566:12 *2987:A0 0
5 *582:127 *2987:A0 0
*RES
1 *3321:Q *2987:A0 45.1603 
*END

*D_NET *679 0.028133
*CONN
*I *2974:A1 I *D sg13g2_o21ai_1
*I *2930:A I *D sg13g2_inv_1
*I *3313:Q O *D sg13g2_dfrbpq_1
*CAP
1 *2974:A1 0.000290683
2 *2930:A 0.000136993
3 *3313:Q 0.000451844
4 *679:69 0.000774082
5 *679:63 0.00104402
6 *679:46 0.00127294
7 *679:40 0.00113595
8 *679:36 0.00163434
9 *679:32 0.00223121
10 *679:24 0.00119051
11 *679:8 0.00160612
12 *679:24 *690:26 0.000631762
13 *679:63 *700:14 0.000125088
14 uio_out[2] *679:46 0
15 *2939:S *679:8 0.000834705
16 *2974:B1 *2974:A1 0.000210161
17 *3326:RESET_B *679:63 0.000259011
18 *10:9 *679:46 0.0017673
19 *13:9 *679:32 0
20 *13:9 *679:46 0
21 *15:9 *2974:A1 0
22 *15:9 *679:24 2.14736e-05
23 *16:9 *679:24 0
24 *26:18 *2930:A 0.000209796
25 *26:26 *679:36 0.000533932
26 *238:10 *2930:A 4.78769e-05
27 *243:73 *679:8 7.30101e-05
28 *275:10 *679:32 0
29 *277:20 *679:63 0
30 *342:12 *679:63 0.000791759
31 *514:42 *2930:A 1.51749e-05
32 *517:16 *679:36 0
33 *517:24 *679:46 0
34 *519:22 *679:63 0
35 *519:30 *679:24 0
36 *519:36 *679:32 0.000987377
37 *519:44 *679:36 0.00109399
38 *563:14 *679:8 0.000412293
39 *563:14 *679:24 2.14736e-05
40 *569:14 *679:32 0.00104425
41 *580:18 *679:36 0.000891329
42 *583:66 *679:8 0
43 *584:20 *679:46 0
44 *600:81 *679:69 0.000929924
45 *606:44 *679:46 0.000567444
46 *606:48 *679:36 0.00303947
47 *610:24 *679:24 0.000551508
48 *610:36 *679:24 8.02269e-05
49 *617:28 *679:8 0
50 *617:28 *679:24 0
51 *623:100 *679:8 0
52 *623:106 *679:63 8.01995e-05
53 *628:30 *679:69 0.000933632
54 *674:14 *2974:A1 0.000210196
*RES
1 *3313:Q *679:8 45.5414 
2 *679:8 *679:24 46.6435 
3 *679:24 *679:32 47.313 
4 *679:32 *679:36 40.2807 
5 *679:36 *679:40 40 
6 *679:40 *679:46 32.3806 
7 *679:46 *2930:A 41.4008 
8 *679:8 *679:63 45.8916 
9 *679:63 *679:69 46.1594 
10 *679:69 *2974:A1 43.1518 
*END

*D_NET *680 0.000771449
*CONN
*I *2976:A1 I *D sg13g2_mux2_1
*I *3328:Q O *D sg13g2_dfrbpq_1
*CAP
1 *2976:A1 0.00036184
2 *3328:Q 0.00036184
3 *2977:S *2976:A1 0
4 *658:14 *2976:A1 4.77702e-05
*RES
1 *3328:Q *2976:A1 43.7286 
*END

*D_NET *681 0.000384851
*CONN
*I *2977:A1 I *D sg13g2_mux2_1
*I *3329:Q O *D sg13g2_dfrbpq_1
*CAP
1 *2977:A1 0.000192425
2 *3329:Q 0.000192425
3 *2977:S *2977:A1 0
4 *3315:RESET_B *2977:A1 0
5 *56:12 *2977:A1 0
*RES
1 *3329:Q *2977:A1 41.9673 
*END

*D_NET *682 0.00167832
*CONN
*I *2978:A1 I *D sg13g2_mux2_1
*I *3330:Q O *D sg13g2_dfrbpq_1
*CAP
1 *2978:A1 8.14287e-05
2 *3330:Q 0.000338898
3 *682:10 0.000420327
4 *2978:A0 *2978:A1 4.77425e-05
5 *57:8 *682:10 0.000554577
6 *327:28 *682:10 0
7 *512:10 *682:10 0
8 *583:154 *682:10 0.000235347
*RES
1 *3330:Q *682:10 44.2848 
2 *682:10 *2978:A1 40.7519 
*END

*D_NET *683 0.000904701
*CONN
*I *2979:A1 I *D sg13g2_mux2_1
*I *3331:Q O *D sg13g2_dfrbpq_1
*CAP
1 *2979:A1 0.000362063
2 *3331:Q 0.000362063
3 *3125:S *2979:A1 0
4 *3351:D *2979:A1 0.000180575
5 *299:60 *2979:A1 0
*RES
1 *3331:Q *2979:A1 44.1612 
*END

*D_NET *684 0.00221694
*CONN
*I *2980:A1 I *D sg13g2_mux2_1
*I *3336:Q O *D sg13g2_dfrbpq_1
*CAP
1 *2980:A1 6.37736e-05
2 *3336:Q 0.000340542
3 *684:12 0.000404316
4 uo_out[1] *684:12 0.000506742
5 *2980:A0 *2980:A1 8.00842e-05
6 *281:20 *684:12 0.000501057
7 *317:51 *684:12 0
8 *579:64 *684:12 0.000208001
9 *585:23 *2980:A1 0.000112426
*RES
1 *3336:Q *684:12 44.7277 
2 *684:12 *2980:A1 40.7519 
*END

*D_NET *685 0.00321126
*CONN
*I *2981:A1 I *D sg13g2_mux2_1
*I *3337:Q O *D sg13g2_dfrbpq_1
*CAP
1 *2981:A1 0.000585759
2 *3337:Q 0.000524557
3 *685:10 0.00111032
4 *3309:CLK *685:10 0
5 *3338:D *685:10 0
6 *3345:D *2981:A1 0
7 *512:10 *685:10 0
8 *553:10 *685:10 0
9 *575:14 *2981:A1 0.000755154
10 *575:18 *685:10 0.00023547
11 *577:10 *2981:A1 0
12 *577:10 *685:10 0
*RES
1 *3337:Q *685:10 44.8719 
2 *685:10 *2981:A1 45.7268 
*END

*D_NET *686 0.00259294
*CONN
*I *2982:A1 I *D sg13g2_mux2_1
*I *3338:Q O *D sg13g2_dfrbpq_1
*CAP
1 *2982:A1 0.000749739
2 *3338:Q 0.000749739
3 *2982:A0 *2982:A1 0.000465468
4 *3297:RESET_B *2982:A1 0.0003868
5 *43:8 *2982:A1 0
6 *613:61 *2982:A1 0.000241195
*RES
1 *3338:Q *2982:A1 47.622 
*END

*D_NET *687 0.000553172
*CONN
*I *2983:A1 I *D sg13g2_mux2_1
*I *3339:Q O *D sg13g2_dfrbpq_1
*CAP
1 *2983:A1 0.000187994
2 *3339:Q 0.000187994
3 *2983:A0 *2983:A1 0.000177184
4 *3298:D *2983:A1 0
*RES
1 *3339:Q *2983:A1 42.0291 
*END

*D_NET *688 0.00341172
*CONN
*I *2939:A1 I *D sg13g2_mux2_1
*I *3572:A I *D sg13g2_dlygate4sd3_1
*I *3174:Q O *D sg13g2_dfrbpq_1
*CAP
1 *2939:A1 3.73836e-05
2 *3572:A 0.000356645
3 *3174:Q 0.000911654
4 *688:8 0.00130568
5 *2939:S *3572:A 0.00054471
6 *342:12 *688:8 0
7 *342:35 *688:8 0
8 *351:8 *688:8 0
9 *522:71 *3572:A 7.49633e-05
10 *522:71 *688:8 0.000180684
11 *545:10 *3572:A 0
12 *545:10 *688:8 0
13 *583:66 *3572:A 0
14 *649:16 *688:8 0
*RES
1 *3174:Q *688:8 47.519 
2 *688:8 *3572:A 43.8831 
3 *688:8 *2939:A1 40.3193 
*END

*D_NET *689 0.0026421
*CONN
*I *2938:A1 I *D sg13g2_mux2_1
*I *3561:A I *D sg13g2_dlygate4sd3_1
*I *3175:Q O *D sg13g2_dfrbpq_1
*CAP
1 *2938:A1 0
2 *3561:A 0
3 *3175:Q 0
4 *689:27 0.000613641
5 *689:14 0.000117579
6 *689:4 0.000731221
7 *689:14 *697:28 4.77425e-05
8 *689:27 *697:28 0.000176018
9 *3367:RESET_B *689:27 0.000143642
10 *12:11 *689:14 0.000124547
11 *12:11 *689:27 0
12 *67:12 *689:14 4.77425e-05
13 *73:8 *689:27 0
14 *493:8 *689:27 7.34762e-05
15 *508:30 *689:27 0.000493204
16 *623:140 *689:27 7.3287e-05
*RES
1 *3175:Q *689:4 20 
2 *689:4 *689:14 41.236 
3 *689:14 *3561:A 20 
4 *689:4 *689:27 46.4787 
5 *689:27 *2938:A1 20 
*END

*D_NET *690 0.0139983
*CONN
*I *2937:A1 I *D sg13g2_mux2_1
*I *3364:D I *D sg13g2_dfrbpq_1
*I *3176:Q O *D sg13g2_dfrbpq_1
*CAP
1 *2937:A1 4.63063e-05
2 *3364:D 0.000573797
3 *3176:Q 0.000572717
4 *690:26 0.00203037
5 *690:20 0.00200691
6 *690:12 0.000596648
7 *690:10 0.000572717
8 *690:10 *697:46 0.000272836
9 *690:20 *700:14 0.000386382
10 *2948:A *3364:D 4.78578e-05
11 *2949:B *3364:D 0.000315639
12 *3151:B *3364:D 1.54556e-05
13 *3353:D *690:20 0
14 *15:9 *690:26 0.000858587
15 *17:9 *690:20 0
16 *243:61 *690:20 0.000177109
17 *277:20 *690:10 0.000907668
18 *298:28 *2937:A1 0
19 *298:28 *690:20 0
20 *431:56 *690:10 0
21 *508:30 *3364:D 0
22 *533:40 *690:10 0
23 *544:46 *2937:A1 1.54008e-05
24 *562:10 *3364:D 4.75425e-05
25 *562:10 *690:26 0.0002802
26 *562:14 *690:26 0.00241585
27 *580:10 *3364:D 0.000111037
28 *606:48 *3364:D 0
29 *606:48 *690:26 0
30 *610:24 *690:26 0
31 *610:36 *690:26 0.000729045
32 *625:83 *690:20 8.00842e-05
33 *625:100 *2937:A1 8.00842e-05
34 *625:100 *690:20 0.000226249
35 *639:44 *690:20 0
36 *679:24 *690:26 0.000631762
*RES
1 *3176:Q *690:10 46.1388 
2 *690:10 *690:12 20 
3 *690:12 *690:20 45.0882 
4 *690:20 *690:26 37.6954 
5 *690:26 *3364:D 45.4487 
6 *690:12 *2937:A1 20.5356 
*END

*D_NET *691 0.00553539
*CONN
*I *2936:A1 I *D sg13g2_mux2_1
*I *3365:D I *D sg13g2_dfrbpq_1
*I *3177:Q O *D sg13g2_dfrbpq_1
*CAP
1 *2936:A1 0
2 *3365:D 0.000206861
3 *3177:Q 9.17972e-05
4 *691:41 0.000278593
5 *691:26 0.000485453
6 *691:24 0.000978111
7 *691:8 0.00106991
8 *691:24 *2940:A_N 0
9 *691:24 *697:46 0
10 *68:39 *691:24 0
11 *68:50 *691:24 0
12 *72:16 *691:41 0.000441716
13 *243:14 *691:41 0.000444235
14 *246:53 *691:24 0.000176252
15 *298:22 *691:8 0
16 *318:62 *691:24 6.99845e-05
17 *348:18 *3365:D 0.000304897
18 *348:18 *691:41 0.000257405
19 *522:48 *691:8 0.000231428
20 *674:14 *691:24 0.00049875
*RES
1 *3177:Q *691:8 41.0918 
2 *691:8 *691:24 49.1464 
3 *691:24 *691:26 20 
4 *691:26 *3365:D 22.0497 
5 *691:26 *691:41 43.914 
6 *691:41 *2936:A1 20 
*END

*D_NET *692 0.0262103
*CONN
*I *2970:B I *D sg13g2_nand2_1
*I *2971:B I *D sg13g2_nand3_1
*I *3326:Q O *D sg13g2_dfrbpq_1
*CAP
1 *2970:B 0
2 *2971:B 0
3 *3326:Q 0.00022711
4 *692:69 0.00102327
5 *692:59 0.00154501
6 *692:53 0.002466
7 *692:41 0.00208789
8 *692:33 0.00134668
9 *692:22 0.000146168
10 *692:16 0.00244421
11 *692:8 0.0013221
12 *692:22 *2971:C 1.54008e-05
13 *692:53 *699:51 0.00014223
14 *692:53 *701:20 0.000126358
15 *692:59 *698:45 0.000338245
16 *692:59 *699:59 0
17 *692:69 *2935:B 0.000497694
18 *2975:A *692:69 0
19 *3531:A *692:69 0
20 *3533:A *692:69 0
21 *14:23 *692:69 0.000240524
22 *18:25 *692:69 0
23 *68:23 *692:16 0
24 *92:18 *692:8 0
25 *150:22 *692:53 0.000181694
26 *167:16 *692:53 0.000236808
27 *235:34 *692:53 0.00225378
28 *246:43 *692:16 0
29 *246:76 *692:33 0
30 *246:80 *692:53 0.0026786
31 *246:90 *692:53 0
32 *247:12 *692:69 0.00043981
33 *247:32 *692:59 0.00023122
34 *288:41 *692:69 0
35 *297:14 *692:16 0
36 *297:14 *692:33 0
37 *308:27 *692:53 0
38 *352:26 *692:33 0.00323794
39 *417:10 *692:53 7.50455e-05
40 *417:18 *692:33 0
41 *417:28 *692:33 0
42 *433:16 *692:53 0
43 *508:10 *692:8 0.000280479
44 *508:20 *692:8 0.00034097
45 *522:30 *692:53 0
46 *533:16 *692:53 0.000499613
47 *592:20 *692:69 0.000143351
48 *592:29 *692:69 4.77425e-05
49 *592:54 *692:16 0
50 *592:54 *692:33 0
51 *592:56 *692:16 0
52 *592:78 *692:16 0.000603215
53 *625:12 *692:69 0
54 *628:26 *692:33 0
55 *629:104 *692:69 8.01995e-05
56 *630:37 *692:59 0.000285865
57 *630:47 *692:59 2.14736e-05
58 *666:39 *692:53 0.000603597
*RES
1 *3326:Q *692:8 42.8222 
2 *692:8 *692:16 30.8506 
3 *692:16 *692:22 41.1845 
4 *692:22 *2971:B 20 
5 *692:16 *692:33 35.4706 
6 *692:33 *692:41 41.1021 
7 *692:41 *692:53 45.8221 
8 *692:53 *692:59 45.047 
9 *692:59 *692:69 49.6485 
10 *692:69 *2970:B 20 
*END

*D_NET *693 0.00124569
*CONN
*I *2984:A1 I *D sg13g2_mux2_1
*I *3332:Q O *D sg13g2_dfrbpq_1
*CAP
1 *2984:A1 0.000144841
2 *3332:Q 0.000313139
3 *693:10 0.000457981
4 *3521:A *693:10 7.9225e-05
5 *48:18 *2984:A1 0
6 *48:18 *693:10 0
7 *423:36 *693:10 0.000124547
8 *675:8 *693:10 0.00012596
*RES
1 *3332:Q *693:10 42.8634 
2 *693:10 *2984:A1 41.2216 
*END

*D_NET *694 0.00360477
*CONN
*I *2985:A1 I *D sg13g2_mux2_1
*I *3333:Q O *D sg13g2_dfrbpq_1
*CAP
1 *2985:A1 0.000143482
2 *3333:Q 0.00033508
3 *694:8 0.000478563
4 *2985:A0 *2985:A1 1.54282e-05
5 *3319:RESET_B *2985:A1 0.000240492
6 *29:24 *2985:A1 0.000175693
7 *582:151 *2985:A1 0
8 *582:151 *694:8 7.30101e-05
9 *587:88 *694:8 0.000912057
10 *590:16 *694:8 0.00123096
11 *616:45 *694:8 0
*RES
1 *3333:Q *694:8 45.7886 
2 *694:8 *2985:A1 41.6171 
*END

*D_NET *695 0.00254184
*CONN
*I *2986:A1 I *D sg13g2_mux2_1
*I *3334:Q O *D sg13g2_dfrbpq_1
*CAP
1 *2986:A1 3.15724e-05
2 *3334:Q 0.000680746
3 *695:16 0.000712318
4 *2986:A0 *2986:A1 1.54008e-05
5 *3341:RESET_B *695:16 4.77425e-05
6 *51:12 *695:16 0
7 *65:12 *2986:A1 0
8 *78:8 *695:16 2.14736e-05
9 *239:24 *695:16 0
10 *294:63 *695:16 0
11 *618:82 *695:16 0.000370879
12 *677:12 *695:16 0.000661709
*RES
1 *3334:Q *695:16 47.004 
2 *695:16 *2986:A1 40.3193 
*END

*D_NET *696 0.000925517
*CONN
*I *2987:A1 I *D sg13g2_mux2_1
*I *3335:Q O *D sg13g2_dfrbpq_1
*CAP
1 *2987:A1 0
2 *3335:Q 0.00028639
3 *696:10 0.00028639
4 uio_out[1] *696:10 0
5 *51:22 *696:10 0.000176369
6 *565:8 *696:10 0
7 *587:18 *696:10 0.000176369
*RES
1 *3335:Q *696:10 42.7707 
2 *696:10 *2987:A1 40 
*END

*D_NET *697 0.0102621
*CONN
*I *2971:C I *D sg13g2_nand3_1
*I *2973:A I *D sg13g2_or2_1
*I *3327:Q O *D sg13g2_dfrbpq_1
*CAP
1 *2971:C 3.64002e-05
2 *2973:A 0
3 *3327:Q 0.00100168
4 *697:46 0.000763469
5 *697:28 0.00152205
6 *697:18 0.00212901
7 *697:10 0.000881578
8 *3171:CLK *697:28 0.000143908
9 *3352:CLK *697:10 0.000285721
10 *3367:RESET_B *697:28 0.000337503
11 *67:12 *697:28 0
12 *68:39 *697:46 0
13 *76:12 *697:46 0.000656305
14 *93:12 *697:46 0
15 *238:30 *697:18 2.17504e-05
16 *238:30 *697:28 4.68848e-05
17 *245:24 *697:10 0
18 *246:43 *697:18 0.000967703
19 *249:8 *697:28 0.000175693
20 *275:10 *697:28 0
21 *287:8 *697:28 0
22 *287:27 *697:28 0
23 *292:10 *697:28 0
24 *431:56 *697:46 0
25 *519:16 *697:10 0
26 *522:48 *697:46 0.000657937
27 *524:10 *697:46 0
28 *533:40 *697:46 0
29 *592:86 *697:28 0
30 *624:88 *697:28 0
31 *670:8 *697:18 7.30101e-05
32 *670:14 *697:18 4.9525e-05
33 *689:14 *697:28 4.77425e-05
34 *689:27 *697:28 0.000176018
35 *690:10 *697:46 0.000272836
36 *691:24 *697:46 0
37 *692:22 *2971:C 1.54008e-05
*RES
1 *3327:Q *697:10 42.5235 
2 *697:10 *697:18 47.3748 
3 *697:18 *697:28 33.6681 
4 *697:28 *2973:A 20 
5 *3327:Q *697:46 48.7138 
6 *697:46 *2971:C 40.3193 
*END

*D_NET *698 0.0255811
*CONN
*I *2935:B I *D sg13g2_nand2_1
*I *2940:A_N I *D sg13g2_nand2b_1
*I *3356:Q O *D sg13g2_dfrbpq_1
*CAP
1 *2935:B 0.000347219
2 *2940:A_N 0.00103121
3 *3356:Q 0.000471309
4 *698:45 0.000576735
5 *698:37 0.00217129
6 *698:20 0.0015584
7 *698:14 0.00256788
8 *698:8 0.000570218
9 *698:37 *699:51 0.00189269
10 *3000:B *2940:A_N 0
11 *20:21 *698:45 0
12 *243:8 *2935:B 0.000272718
13 *244:38 *2940:A_N 0.000125175
14 *247:44 *698:14 0
15 *273:20 *698:37 0.0029064
16 *273:24 *698:37 0
17 *290:43 *698:45 0
18 *300:26 *698:20 0.00152883
19 *300:26 *698:37 0.00478521
20 *343:20 *698:14 0
21 *345:18 *698:8 0.000754821
22 *346:10 *698:14 0
23 *356:43 *698:37 0.00244473
24 *417:40 *2940:A_N 0.000234146
25 *435:22 *698:45 0
26 *487:16 *698:8 0.000432821
27 *522:14 *698:45 0
28 *562:63 *2940:A_N 0
29 *600:77 *698:20 0
30 *600:77 *698:37 0
31 *623:26 *698:37 0
32 *630:47 *698:45 7.33256e-05
33 *639:38 *2940:A_N 0
34 *674:14 *2940:A_N 0
35 *691:24 *2940:A_N 0
36 *692:59 *698:45 0.000338245
37 *692:69 *2935:B 0.000497694
*RES
1 *3356:Q *698:8 45.0779 
2 *698:8 *698:14 40.7519 
3 *698:14 *698:20 47.0246 
4 *698:20 *2940:A_N 48.8271 
5 *698:14 *698:37 34.8861 
6 *698:37 *698:45 42.369 
7 *698:45 *2935:B 43.5638 
*END

*D_NET *699 0.0252823
*CONN
*I *2935:A I *D sg13g2_nand2_1
*I *2940:B I *D sg13g2_nand2b_1
*I *3357:Q O *D sg13g2_dfrbpq_1
*CAP
1 *2935:A 0
2 *2940:B 8.87324e-05
3 *3357:Q 0.000191804
4 *699:59 0.000726341
5 *699:51 0.00174284
6 *699:45 0.00250572
7 *699:35 0.00156525
8 *699:18 0.00135501
9 *699:6 0.00153411
10 *2940:B *700:24 0.000144467
11 *699:6 *3003:D 0.000337174
12 *699:35 *3003:D 6.34947e-05
13 *3077:A0 *699:59 0.000896818
14 *167:16 *699:51 0
15 *240:18 *699:45 2.22341e-05
16 *240:18 *699:51 0
17 *243:8 *699:59 0.000272718
18 *247:32 *699:59 0.000281583
19 *260:18 *699:6 0.000337174
20 *260:18 *699:35 7.86681e-05
21 *273:20 *699:45 0
22 *273:20 *699:51 0.00130468
23 *273:24 *699:51 0.00195496
24 *318:62 *699:18 0.000713495
25 *320:33 *699:59 0.0001122
26 *343:20 *699:35 0
27 *346:10 *699:35 4.63914e-05
28 *417:28 *699:18 0.000861496
29 *433:22 *699:59 0.000386501
30 *528:22 *699:18 0.000181192
31 *562:30 *699:18 0
32 *569:22 *2940:B 0
33 *600:77 *699:45 0.00167855
34 *623:26 *699:45 0.000343381
35 *623:36 *699:18 0.000180882
36 *630:37 *699:59 0.000442385
37 *639:22 *699:18 0.000496586
38 *674:14 *699:18 0.00240057
39 *692:53 *699:51 0.00014223
40 *692:59 *699:59 0
41 *698:37 *699:51 0.00189269
*RES
1 *3357:Q *699:6 22.266 
2 *699:6 *699:18 37.0156 
3 *699:18 *2940:B 40.9682 
4 *699:6 *699:35 40.8549 
5 *699:35 *699:45 35.6766 
6 *699:45 *699:51 36.3358 
7 *699:51 *699:59 48.9507 
8 *699:59 *2935:A 20 
*END

*D_NET *700 0.015038
*CONN
*I *3554:A I *D sg13g2_dlygate4sd3_1
*I *3355:Q O *D sg13g2_dfrbpq_1
*CAP
1 *3554:A 0.000964435
2 *3355:Q 0.000100503
3 *700:24 0.00183002
4 *700:14 0.00328681
5 *700:8 0.00252172
6 *2936:S *700:24 8.00842e-05
7 *2940:B *700:24 0.000144467
8 *2942:S *3554:A 0
9 *2974:B1 *700:14 0.000305242
10 *2974:B1 *700:24 0
11 *3000:B *3554:A 0.000209899
12 *3000:B *700:24 0.000305692
13 *3005:A1 *3554:A 0
14 *3013:B *3554:A 0
15 *3172:RESET_B *3554:A 0.000112569
16 *15:9 *700:14 0
17 *51:35 *700:14 0
18 *52:24 *700:14 0
19 *53:8 *700:24 0.000403641
20 *90:24 *700:14 0.000178087
21 *99:10 *700:24 0
22 *244:10 *700:24 0.000855839
23 *244:38 *3554:A 0
24 *256:48 *3554:A 0
25 *257:8 *3554:A 0.000209931
26 *260:26 *3554:A 0.000402192
27 *266:18 *3554:A 8.00842e-05
28 *267:6 *3554:A 0.000274412
29 *267:19 *3554:A 1.54008e-05
30 *296:36 *700:8 0
31 *301:34 *700:8 0
32 *308:8 *700:14 0
33 *342:12 *700:14 0.00043624
34 *431:42 *700:14 0
35 *487:16 *700:14 0
36 *519:16 *700:14 0.000755815
37 *519:22 *700:14 0
38 *544:46 *3554:A 0.000242124
39 *544:46 *700:24 0
40 *564:8 *700:14 0.000811298
41 *569:22 *700:24 0
42 *610:24 *700:14 0
43 *625:49 *700:14 0
44 *625:58 *700:14 0
45 *625:83 *700:14 0
46 *674:14 *700:24 0
47 *679:63 *700:14 0.000125088
48 *690:20 *700:14 0.000386382
*RES
1 *3355:Q *700:8 40.7519 
2 *700:8 *700:14 42.9175 
3 *700:14 *700:24 49.3009 
4 *700:24 *3554:A 30.2691 
*END

*D_NET *701 0.027457
*CONN
*I *2926:A I *D sg13g2_inv_1
*I *3006:A I *D sg13g2_xnor2_1
*I *3007:A I *D sg13g2_nand3_1
*I *3012:A I *D sg13g2_nand3_1
*I *3010:A I *D sg13g2_nand4_1
*I *3003:A I *D sg13g2_nand4_1
*I *3178:Q O *D sg13g2_dfrbpq_1
*CAP
1 *2926:A 0
2 *3006:A 2.53744e-05
3 *3007:A 0
4 *3012:A 0.000906048
5 *3010:A 0
6 *3003:A 0.000267605
7 *3178:Q 0
8 *701:127 0.000845085
9 *701:101 8.91845e-05
10 *701:93 0.000345407
11 *701:87 0.000556769
12 *701:81 0.000641464
13 *701:73 0.00132997
14 *701:69 0.00107157
15 *701:28 0.000866263
16 *701:20 0.00132481
17 *701:10 0.00227125
18 *701:6 0.00154128
19 *3012:A *704:16 0
20 *701:10 *708:33 0
21 *701:20 *702:16 9.5609e-05
22 *701:28 *702:16 4.77425e-05
23 *701:28 *703:56 0.000104277
24 *701:28 *703:66 0.00103128
25 *701:69 *708:33 0
26 *701:101 *3007:B 6.39133e-05
27 *3065:A0 *701:81 0.0001122
28 *3146:A1 *3012:A 0
29 *3152:A *701:81 0.000144768
30 *3178:RESET_B *3012:A 0
31 *3181:RESET_B *3012:A 0.000451108
32 *15:29 *701:127 0.000177894
33 *17:21 *701:87 0
34 *93:18 *3003:A 0.000175693
35 *101:8 *701:81 0
36 *101:14 *701:73 0.000761132
37 *101:14 *701:127 0.000155794
38 *104:16 *701:93 0.00013029
39 *150:14 *701:69 0.000208592
40 *153:10 *701:73 0.000759627
41 *153:10 *701:127 0.000282661
42 *154:12 *701:69 0.00192771
43 *235:28 *701:127 4.75166e-05
44 *258:18 *701:101 1.54008e-05
45 *260:18 *3003:A 0
46 *261:16 *3012:A 8.00842e-05
47 *262:47 *3006:A 3.23417e-05
48 *262:47 *701:81 0.000144025
49 *263:18 *3006:A 0
50 *263:18 *701:81 0
51 *265:8 *701:20 0.000802754
52 *265:8 *701:28 1.54008e-05
53 *300:22 *701:93 0
54 *301:28 *701:28 0.000124547
55 *310:28 *701:69 0.000175693
56 *319:12 *3012:A 0
57 *319:81 *701:127 0.000489946
58 *346:75 *701:127 0.0001122
59 *352:16 *701:127 0
60 *352:22 *701:127 0
61 *414:40 *701:28 0.000343654
62 *484:10 *701:20 0.000272718
63 *509:14 *701:28 0.00123749
64 *522:30 *701:20 0.000126445
65 *555:12 *701:127 0
66 *592:39 *701:10 0
67 *592:39 *701:69 0.00277305
68 *607:31 *701:127 0.000389469
69 *627:69 *3012:A 0.00033687
70 *629:47 *701:10 0.000235774
71 *647:31 *701:127 0.000862906
72 *692:53 *701:20 0.000126358
*RES
1 *3178:Q *701:6 40 
2 *701:6 *701:10 25.2942 
3 *701:10 *701:20 47.0511 
4 *701:20 *701:28 48.9507 
5 *701:28 *3003:A 22.7089 
6 *701:20 *3010:A 20 
7 *701:10 *3012:A 29.0331 
8 *701:6 *701:69 34.8938 
9 *701:69 *701:73 23.5638 
10 *701:73 *701:81 23.1518 
11 *701:81 *701:87 42.4823 
12 *701:87 *701:93 42.3278 
13 *701:93 *701:101 40.8858 
14 *701:101 *3007:A 20 
15 *701:81 *3006:A 20.3193 
16 *701:73 *701:127 30.5987 
17 *701:127 *2926:A 20 
*END

*D_NET *702 0.0259109
*CONN
*I *2927:A I *D sg13g2_inv_1
*I *3007:B I *D sg13g2_nand3_1
*I *3010:B I *D sg13g2_nand4_1
*I *3002:A_N I *D sg13g2_nand3b_1
*I *3179:Q O *D sg13g2_dfrbpq_1
*CAP
1 *2927:A 0.00038877
2 *3007:B 0.000136036
3 *3010:B 0
4 *3002:A_N 0
5 *3179:Q 0
6 *702:61 0.000855422
7 *702:44 0.00200091
8 *702:24 0.000536766
9 *702:16 0.000641461
10 *702:12 0.00145886
11 *702:4 0.00275239
12 *2927:A *2928:A 4.79124e-05
13 *2927:A *704:58 0.00122804
14 *702:24 *3002:C 1.54008e-05
15 *3004:B *3007:B 7.86681e-05
16 *3007:C *3007:B 6.39133e-05
17 *3231:CLK *702:12 0
18 *17:21 *702:61 0
19 *20:21 *702:61 0
20 *76:12 *702:24 0.00159561
21 *105:14 *702:44 0.00184773
22 *107:16 *702:44 0.0018891
23 *236:20 *2927:A 7.92542e-05
24 *260:55 *702:44 0
25 *260:55 *702:61 0
26 *299:10 *702:24 0
27 *301:28 *702:24 0.000240377
28 *311:8 *702:24 0.000445948
29 *328:84 *702:12 0.000626835
30 *344:8 *702:44 0
31 *346:50 *702:44 0.000985183
32 *346:50 *702:61 0.000126146
33 *346:75 *2927:A 0.000176624
34 *487:10 *702:12 0.0024344
35 *497:17 *702:12 0
36 *522:14 *702:61 0.000318426
37 *625:24 *702:12 0.00243459
38 *627:16 *2927:A 0
39 *627:28 *2927:A 0.00122807
40 *630:92 *702:12 0
41 *666:16 *702:24 0.00107077
42 *701:20 *702:16 9.5609e-05
43 *701:28 *702:16 4.77425e-05
44 *701:101 *3007:B 6.39133e-05
*RES
1 *3179:Q *702:4 20 
2 *702:4 *702:12 39.6833 
3 *702:12 *702:16 20.9682 
4 *702:16 *702:24 49.1361 
5 *702:24 *3002:A_N 20 
6 *702:16 *3010:B 20 
7 *702:4 *702:44 38.7678 
8 *702:44 *3007:B 41.2926 
9 *702:44 *702:61 44.8101 
10 *702:61 *2927:A 46.9731 
*END

*D_NET *703 0.0175303
*CONN
*I *3010:C I *D sg13g2_nand4_1
*I *3003:B I *D sg13g2_nand4_1
*I *3011:A I *D sg13g2_xnor2_1
*I *3012:B I *D sg13g2_nand3_1
*I *3180:Q O *D sg13g2_dfrbpq_1
*CAP
1 *3010:C 5.89943e-05
2 *3003:B 0
3 *3011:A 0.000147929
4 *3012:B 8.10895e-05
5 *3180:Q 0.00036527
6 *703:66 0.000767745
7 *703:56 0.00202718
8 *703:35 0.00214428
9 *703:18 0.0013094
10 *703:10 0.000797672
11 *3011:A *708:33 0
12 *703:10 *706:59 0.00108739
13 *703:66 *704:26 0.000240377
14 *3010:D *3010:C 4.77425e-05
15 *3401:A *703:10 0.00098091
16 *75:8 *703:10 0
17 *76:12 *703:56 0
18 *76:12 *703:66 0
19 *104:16 *703:35 0
20 *107:16 *703:18 0.000182109
21 *107:24 *3012:B 7.33225e-05
22 *107:24 *703:18 0.00151352
23 *163:14 *703:56 4.63914e-05
24 *163:14 *703:66 0.000643652
25 *163:22 *703:56 7.30101e-05
26 *256:68 *703:56 0
27 *260:47 *703:18 0
28 *261:16 *3012:B 9.6255e-05
29 *265:14 *703:35 0
30 *265:14 *703:56 0.000267636
31 *311:14 *3011:A 0
32 *417:79 *703:18 0.000144768
33 *522:34 *703:66 0.000124949
34 *544:22 *703:35 0.000205083
35 *592:39 *3011:A 0.00023375
36 *592:39 *703:56 0.000177736
37 *624:40 *703:66 0.000384926
38 *629:47 *703:56 0
39 *666:8 *703:66 0.000340824
40 *673:18 *3012:B 7.33225e-05
41 *673:18 *703:18 0.00175754
42 *701:28 *703:56 0.000104277
43 *701:28 *703:66 0.00103128
*RES
1 *3180:Q *703:10 46.2315 
2 *703:10 *703:18 49.2288 
3 *703:18 *3012:B 40.9939 
4 *703:18 *703:35 46.8083 
5 *703:35 *3011:A 41.6274 
6 *703:35 *703:56 49.3318 
7 *703:56 *703:66 49.9189 
8 *703:66 *3003:B 40 
9 *703:56 *3010:C 40.5356 
*END

*D_NET *704 0.0253608
*CONN
*I *2928:A I *D sg13g2_inv_1
*I *3012:C I *D sg13g2_nand3_1
*I *3003:C I *D sg13g2_nand4_1
*I *3181:Q O *D sg13g2_dfrbpq_1
*CAP
1 *2928:A 0.000503987
2 *3012:C 0.000154761
3 *3003:C 0
4 *3181:Q 0
5 *704:58 0.00254291
6 *704:34 0.00035647
7 *704:26 0.00196962
8 *704:20 0.00185639
9 *704:16 0.00060155
10 *704:4 0.002552
11 *704:26 *708:49 0.000341119
12 *704:34 *3003:D 4.77425e-05
13 *2927:A *2928:A 4.79124e-05
14 *2927:A *704:58 0.00122804
15 *3008:B1 *704:58 0
16 *3012:A *704:16 0
17 *3180:D *704:58 0.000144964
18 *3184:RESET_B *704:26 0
19 *3401:A *704:16 0.000106064
20 *3533:A *2928:A 0
21 *54:8 *704:58 7.44077e-05
22 *93:18 *704:34 0.000228976
23 *104:22 *704:16 4.74036e-05
24 *107:16 *704:16 0
25 *107:16 *704:58 0
26 *151:8 *704:58 0.00145523
27 *163:14 *704:34 0.000748084
28 *236:20 *2928:A 0
29 *236:20 *704:58 1.58838e-05
30 *237:10 *2928:A 0.000144843
31 *247:12 *704:58 0
32 *258:26 *2928:A 0
33 *262:16 *704:26 7.31655e-05
34 *262:47 *704:58 0.000177894
35 *263:18 *704:58 0.000658056
36 *288:41 *704:58 0
37 *291:73 *704:20 0
38 *291:73 *704:26 0
39 *291:73 *704:58 0
40 *291:75 *704:26 0
41 *291:89 *704:26 0
42 *295:25 *704:26 0
43 *310:28 *704:58 0.0026889
44 *312:8 *704:26 0
45 *312:10 *704:16 0.00060763
46 *318:8 *704:16 0.000502791
47 *318:31 *704:16 0
48 *318:31 *704:20 0.000231326
49 *318:31 *704:26 0.000819094
50 *322:33 *704:16 0.000613071
51 *343:8 *704:58 0.000771868
52 *346:54 *2928:A 0
53 *417:79 *704:58 0
54 *432:16 *704:34 0
55 *510:16 *704:26 0.000916484
56 *522:30 *704:26 0.00030506
57 *627:10 *704:58 0
58 *627:16 *2928:A 0.000112826
59 *627:28 *704:58 0
60 *627:101 *704:26 0.00101352
61 *629:104 *704:58 0.000283647
62 *630:92 *704:58 0
63 *631:12 *2928:A 4.75166e-05
64 *631:65 *2928:A 0.000129177
65 *703:66 *704:26 0.000240377
*RES
1 *3181:Q *704:4 20 
2 *704:4 *704:16 47.4881 
3 *704:16 *704:20 21.0918 
4 *704:20 *704:26 38.1898 
5 *704:26 *704:34 43.8831 
6 *704:34 *3003:C 20 
7 *704:20 *3012:C 41.1845 
8 *704:4 *704:58 47.6967 
9 *704:58 *2928:A 45.2633 
*END

*D_NET *705 0.0216983
*CONN
*I *3015:A I *D sg13g2_xor2_1
*I *3017:A1 I *D sg13g2_a21oi_1
*I *3001:A I *D sg13g2_and2_1
*I *3002:B I *D sg13g2_nand3b_1
*I *3182:Q O *D sg13g2_dfrbpq_1
*CAP
1 *3015:A 0
2 *3017:A1 8.72282e-05
3 *3001:A 0.000506769
4 *3002:B 0
5 *3182:Q 0.000162605
6 *705:35 0.00089806
7 *705:31 0.00217751
8 *705:29 0.00229651
9 *705:16 0.00111466
10 *705:8 0.00170033
11 *3001:A *3017:B1 0.000208035
12 *705:16 *3002:C 0.000112426
13 *705:16 *706:18 0.000820794
14 *705:29 *706:18 0.000208035
15 *3014:B1 *3001:A 0
16 *3014:B1 *3017:A1 4.77425e-05
17 *3017:A2 *3017:A1 1.54008e-05
18 *3311:RESET_B *705:16 0.000112426
19 *260:18 *705:16 0.000610599
20 *261:16 *705:31 0.00423738
21 *261:16 *705:35 0
22 *262:16 *705:8 0.000816916
23 *262:16 *705:29 0.000106151
24 *263:18 *3001:A 0
25 *265:30 *3001:A 0
26 *268:8 *3017:A1 0.000180603
27 *268:8 *705:35 0.000181572
28 *269:14 *3017:A1 5.28594e-05
29 *269:14 *705:31 0.00300976
30 *269:14 *705:35 0.000824012
31 *347:10 *705:16 0.000121666
32 *506:14 *705:29 0
33 *626:30 *705:8 0.000816916
34 *626:30 *705:29 0.000127853
35 *629:67 *705:16 0.000143491
36 *632:54 *705:31 0
*RES
1 *3182:Q *705:8 43.811 
2 *705:8 *705:16 31.433 
3 *705:16 *3002:B 20 
4 *705:8 *705:29 44.1612 
5 *705:29 *705:31 26.3062 
6 *705:31 *705:35 4.1303 
7 *705:35 *3001:A 44.5423 
8 *705:35 *3017:A1 41.1639 
9 *705:31 *3015:A 40 
*END

*D_NET *706 0.0176757
*CONN
*I *3017:B1 I *D sg13g2_a21oi_1
*I *3001:B I *D sg13g2_and2_1
*I *3002:C I *D sg13g2_nand3b_1
*I *3183:Q O *D sg13g2_dfrbpq_1
*CAP
1 *3017:B1 0.000474106
2 *3001:B 0
3 *3002:C 7.54904e-05
4 *3183:Q 0.000125813
5 *706:67 0.000409928
6 *706:59 0.00212877
7 *706:51 0.00217646
8 *706:47 0.00129336
9 *706:26 0.000759662
10 *706:18 0.00144877
11 *706:10 0.00125206
12 *706:10 *3003:D 8.00842e-05
13 *706:18 *708:18 0.000126354
14 *3001:A *3017:B1 0.000208035
15 *3014:B1 *3017:B1 4.77425e-05
16 *3152:A *3017:B1 0.0001122
17 *3152:A *706:67 0.000175693
18 *3152:B *706:67 0.000175836
19 *3184:RESET_B *706:18 0
20 *3401:A *706:59 0
21 *6:14 *706:18 0
22 *6:26 *706:18 0
23 *75:8 *706:10 0.000178206
24 *75:8 *706:47 0.000604668
25 *75:8 *706:59 0
26 *104:16 *706:51 0
27 *107:10 *3017:B1 7.92265e-05
28 *107:32 *706:18 1.54008e-05
29 *149:22 *706:26 0
30 *236:44 *706:10 2.14736e-05
31 *259:12 *706:26 0
32 *260:18 *706:10 8.00842e-05
33 *263:18 *706:67 0
34 *288:41 *706:67 0
35 *291:58 *3017:B1 0
36 *291:58 *706:59 0
37 *291:119 *706:18 0
38 *301:28 *3002:C 0
39 *308:27 *706:26 7.30101e-05
40 *311:25 *706:10 0
41 *311:25 *706:47 0.000287563
42 *318:8 *706:59 0.000128663
43 *322:33 *706:59 0.000663716
44 *322:39 *706:47 0.000234766
45 *346:10 *706:26 0
46 *626:18 *3017:B1 0.00010609
47 *626:18 *706:59 0.00188845
48 *626:24 *706:51 0
49 *702:24 *3002:C 1.54008e-05
50 *703:10 *706:59 0.00108739
51 *705:16 *3002:C 0.000112426
52 *705:16 *706:18 0.000820794
53 *705:29 *706:18 0.000208035
*RES
1 *3183:Q *706:10 41.3802 
2 *706:10 *706:18 47.4057 
3 *706:18 *706:26 44.7792 
4 *706:26 *3002:C 40.7519 
5 *706:10 *706:47 44.7998 
6 *706:47 *706:51 30.2382 
7 *706:51 *706:59 35.6045 
8 *706:59 *706:67 43.5123 
9 *706:67 *3001:B 40 
10 *706:59 *3017:B1 45.0985 
*END

*D_NET *707 0.0179425
*CONN
*I *3019:A I *D sg13g2_xnor2_1
*I *3003:D I *D sg13g2_nand4_1
*I *3184:Q O *D sg13g2_dfrbpq_1
*CAP
1 *3019:A 0.000233575
2 *3003:D 0.00180607
3 *3184:Q 0
4 *707:23 0.00201391
5 *707:10 0.00210034
6 *707:4 0.00207461
7 *3361:CLK *3003:D 0
8 *3485:A *3003:D 0.000594529
9 *107:32 *707:10 0.00135288
10 *259:53 *3019:A 0.000240377
11 *259:53 *707:23 0.00499183
12 *260:18 *3003:D 0.000369693
13 *260:26 *707:10 7.48178e-05
14 *260:47 *707:10 5.15366e-05
15 *508:6 *3003:D 0
16 *673:18 *707:10 0.0015098
17 *699:6 *3003:D 0.000337174
18 *699:35 *3003:D 6.34947e-05
19 *704:34 *3003:D 4.77425e-05
20 *706:10 *3003:D 8.00842e-05
*RES
1 *3184:Q *707:4 20 
2 *707:4 *707:10 47.0246 
3 *707:10 *3003:D 36.3255 
4 *707:4 *707:23 47.1199 
5 *707:23 *3019:A 42.266 
*END

*D_NET *708 0.0203099
*CONN
*I *3146:B1 I *D sg13g2_a21o_1
*I *2999:A I *D sg13g2_nor2b_1
*I *3000:A_N I *D sg13g2_nand2b_1
*I *3311:Q O *D sg13g2_dfrbpq_1
*CAP
1 *3146:B1 0.000111022
2 *2999:A 0
3 *3000:A_N 0
4 *3311:Q 0.000552339
5 *708:49 0.0006393
6 *708:33 0.00185532
7 *708:18 0.00214047
8 *708:8 0.00401985
9 *3000:B *708:18 0.000339583
10 *3011:A *708:33 0
11 *3172:RESET_B *708:18 0.000758676
12 *3228:CLK *708:33 1.54008e-05
13 *3230:D *708:33 0
14 *3361:RESET_B *708:18 0
15 *6:26 *708:18 0
16 *256:6 *708:33 4.75525e-05
17 *256:48 *708:18 0.000339726
18 *256:85 *708:33 0.000111522
19 *291:73 *708:49 0
20 *291:119 *708:18 0
21 *310:22 *708:49 0
22 *311:25 *708:49 0
23 *312:8 *708:49 0.000594939
24 *348:18 *708:18 0.000447247
25 *348:74 *708:18 0.000689035
26 *348:84 *708:18 0.000653998
27 *422:24 *708:33 0
28 *486:16 *708:33 0
29 *527:26 *708:18 0
30 *544:24 *708:18 0
31 *544:46 *708:18 0
32 *592:39 *708:18 0
33 *592:39 *708:33 0
34 *600:65 *708:33 0.00140203
35 *600:71 *708:33 0.00187106
36 *626:72 *708:18 0.00136588
37 *626:94 *708:18 0
38 *629:28 *708:33 0
39 *629:47 *708:33 0.000549457
40 *629:55 *708:33 0.00023547
41 *629:61 *708:18 0.000601853
42 *629:67 *708:18 0
43 *639:14 *708:33 0.000500734
44 *701:10 *708:33 0
45 *701:69 *708:33 0
46 *704:26 *708:49 0.000341119
47 *706:18 *708:18 0.000126354
*RES
1 *3311:Q *708:8 40.3193 
2 *708:8 *708:18 44.7612 
3 *708:18 *3000:A_N 20 
4 *708:8 *708:33 41.733 
5 *708:33 *2999:A 20 
6 *3311:Q *708:49 45.5826 
7 *708:49 *3146:B1 41.133 
*END
